! Engrad def2-TZVPPD wB97M-D3BJ 
%pal nprocs 8 end%pal nprocs 32 end 
%tddft Nroots 2 Iroot 2 
sf true 
end 
*xyz 0 3 
O   0.4140849 1.06391977 -0.01310988
C   0.61188311 -0.28163453 0.001385
C   -0.75652623 -0.75622882 0.00819875
H   1.20880391 -0.54911861 0.87600438
H   1.23333744 -0.54999431 -0.85114885
H   -1.30236316 -0.71313296 -0.91159776
H   -1.28762723 -0.72627003 0.94307816
*
