! Engrad wB97M-D3BJ def2-TZVPPD 
%pal nprocs 8 end%pal nprocs 16 end 
%tddft nroots 2 Iroot 1
 sf true 
end 
*xyz 0 3 
O   1.212750126029 1.10382136328021 -0.12595507991396
C   0.92124084499945 0.00639586151927 0.27309707299743
C   -0.32279623150825 -0.68650096455463 -0.20614487095027
H   1.55645695470277 -0.52616327415594 1.00313438796346
H   -0.06260411927685 -1.63846738717818 -0.67127938365226
H   -0.84431856691523 -0.05207234785222 -0.91484931225555
H   -0.96918681794848 -0.91698787256855 0.64199718581116
*
