! Engrad def2-TZVPPD wB97M-D3BJ 
%pal nprocs 8 end%pal nprocs 64 end 
%tddft 
 Iroot 2 Nroots 3 
sf true 
end 
*xyz 0 3 
O   2.8087551 -0.82156369 -1.93011918
O   -1.81230305 1.36016692 -1.86416299
O   -1.34298164 -2.28023866 -1.00695823
O   -3.0044423 0.30106949 2.25901054
N   -0.03577345 -1.53158523 0.70854011
N   -0.78928828 0.98426895 2.07408181
N   0.80909092 -1.65442625 -1.46400492
N   -2.20990409 0.48788629 0.18656215
C   2.07066588 -0.58329957 0.23948552
C   -0.07680471 1.4660143 -0.19187779
C   0.92505192 -0.55268846 1.12458937
C   0.39068079 0.88592937 1.18527183
C   3.3692002 0.17660749 0.55071158
C   0.8656508 2.10835025 -1.13491209
C   1.99400766 -1.05235887 -1.09898945
C   -1.36900885 1.18435797 -0.72425466
C   -0.28550175 -1.84513795 -0.6272116
C   -2.03763095 0.61199635 1.52603451
H   1.28547801 -0.62408395 2.15014805
H   1.13979003 1.58137422 1.57871414
H   4.30281991 -0.16665403 0.05925472
H   3.17363881 1.28268024 0.35633741
H   3.54854179 0.16542798 1.60856759
H   1.83075693 1.6006158 -1.18014548
H   0.37735097 2.21933463 -2.0932142
H   0.9671339 3.11027185 -0.73131162
H   -0.85915958 -1.56690079 1.21483866
H   -0.62311923 0.57428571 2.99186383
H   0.67436062 -1.84640919 -2.470729
H   -3.14157866 0.26745172 -0.10686874
*
