! EnGrad wB97M-D3BJ def2-TZVPPD 
%pal nprocs 8 end%pal nprocs 16 end 
%tddft 
 sf true 
 nroots 2 Iroot 2 end 
*xyz 0 3 
O   0.23037835684426 0.94155793098676 -0.00142425711619
C   0.65021753863476 -0.33605328535258 -0.00027672380919
C   -0.73381188611605 -0.64888691828955 0.00038573939778
H   1.20773589942337 -0.64368279827926 0.89110002870987
H   1.20782326516699 -0.64500964718321 -0.89109710527534
H   -1.28043291335727 -0.69443206209628 -0.92724500742355
H   -1.27971026059607 -0.69189321978588 0.92855732551662
*
