! Engrad def2-TZVPPD wB97M-D3BJ 
%pal nprocs 8 end%pal nprocs 64 end 
%tddft Nroots 2 Iroot 1 
sf true 
end 
*xyz 0 3 
O   2.14090087 0.14114828 -1.17926309
O   -0.48497831 2.47578354 -2.46966865
O   0.44903212 -3.70329081 0.45099941
O   -2.41237814 -1.25839569 -1.08921818
N   0.44621578 -1.89303456 1.82793587
N   -1.46748779 -0.18074403 0.6419616
N   1.11397174 -1.68648824 -0.38460063
N   -1.05711835 0.45292043 -1.61819191
C   1.06133547 0.37293556 0.93953984
C   -0.06826049 2.36286047 -0.32109022
C   0.55998528 -0.49968527 2.0541782
C   -0.39856984 0.43170723 1.36209817
C   2.01954195 1.46360421 1.34607101
C   -0.95320269 3.30220473 0.34954627
C   1.48117961 -0.36856186 -0.30284837
C   -0.56052837 1.74524073 -1.51563012
C   0.63727087 -2.51888846 0.63713994
C   -1.67905513 -0.38320662 -0.69575859
H   0.89216911 -0.24141016 3.05974259
H   -0.6430646 1.33044496 1.91647954
H   2.33593635 2.05117076 0.4813655
H   1.57029383 2.0975119 2.10699612
H   2.90517251 0.98934284 1.79641633
H   -1.96739767 2.89844765 0.54938928
H   -0.56946639 3.7142623 1.28780356
H   -1.0637548 4.12588968 -0.35290956
H   0.08194453 -2.49429047 2.5568675
H   -1.97477666 -0.8828415 1.17149984
H   1.36241328 -2.19027016 -1.22646059
H   -1.27359159 0.18503347 -2.55676527
*
