! Engrad wB97M-D3BJ def2-TZVPPD 
%pal nprocs 8 end%pal nprocs 16 end 
%tddft nroots 2 Iroot 2
 sf true 
end 
*xyz 0 3 
O   0.31205911829959 0.91214556674276 -0.00031728875893
C   0.73103004831287 -0.37331077910073 -6.503120067e-05
C   -0.6765851063264 -0.53014318506491 -7.905414865e-05
H   1.26821774981087 -0.69598666841189 0.8955624652775
H   1.26841615380092 -0.69628446710186 -0.89546640626502
H   -1.22084358906884 -0.57658367744553 -0.92801461542208
H   -1.22008294486082 -0.57536145110033 0.92837993051786
*
