! Engrad def2-TZVPPD wB97M-D3BJ 
%pal nprocs 8 end%pal nprocs 64 end 
 %tddft nroots 2 Iroot 1 
sf true 
end 
*xyz 0 3 
O   3.46741579131532 0.45977869501055 -0.71111162219344
O   -1.07766854389397 1.33113112264334 -2.51708913247281
O   0.470062347288 -2.79531139965674 -0.57660171096223
O   -2.98382343581421 -1.89217574098152 -0.03104178026008
N   0.40371316996435 -1.2642028431636 1.10476253627901
N   -2.12308416982967 -0.09185802844506 1.06391651776932
N   1.58041703029899 -0.81763819345475 -0.84779740175726
N   -1.67927158393457 -0.41589669314304 -1.18474078842357
C   1.96927405834634 0.51298802483341 1.1041438784853
C   -1.07652412122466 1.6677896457811 -0.17630393553831
C   0.43014227028863 0.10779701258114 1.49055684171959
C   -1.08571428675371 0.89397398722229 1.10933285606294
C   2.83825705898181 1.11434712546973 2.12242304939976
C   -1.00058063103477 3.13551764173584 -0.23084054313643
C   2.42083137146134 0.10658471008347 -0.18873947583767
C   -1.26557964050123 0.89697064437445 -1.39680390998399
C   0.79261407328037 -1.71102651019635 -0.15298131912822
C   -2.31438864542436 -0.88874191904905 -0.03689197249069
H   0.38821154968487 0.13162536648542 2.58090084171744
H   -1.25942962325828 1.56630051498894 1.94449727437368
H   3.86249862066578 1.1616790740997 1.76457493775873
H   2.510392183186 2.123448588839 2.39179758286134
H   2.8028074808441 0.52752376050362 3.04813675880893
H   -2.00551286661405 3.56267801060111 -0.11112402973261
H   -0.38333917525271 3.53864316020836 0.56920442761329
H   -0.62900932622813 3.45760578185071 -1.19980366857552
H   -0.16388600430776 -1.93415112079981 1.59732781500565
H   -2.5545814691432 -0.42541010000326 1.90732950183947
H   1.93515865141341 -1.16218168629332 -1.7254625325119
H   -1.81680213380402 -0.98278863212576 -2.00697099668974
*
