! Engrad def2-TZVPPD wB97M-D3BJ 
%pal nprocs 8 end%pal nprocs 64 end 
%tddft 
 Iroot 2 Nroots 3 
sf true 
end 
*xyz 0 3 
O   1.43852808 0.51288782 -0.34549265
C   0.29546302 0.37670913 0.509924
C   -0.51547945 -0.76261189 0.05745173
H   -0.27009083 1.33848029 0.51952069
H   0.68851686 0.19473809 1.51389256
H   -1.42208049 -0.61309423 -0.52497302
H   -0.45375321 -1.77019469 0.49250441
*
