! Engrad def2-TZVPPD wB97M-D3BJ 
%pal nprocs 8 end%pal nprocs 64 end 
%tddft 
 Iroot 2 Nroots 3 
sf true 
end 
*xyz 0 3 
O   3.22016341 -0.7354501 -1.94992545
O   -2.25784 1.7515918 -1.24405879
O   -1.03720047 -2.38251428 -2.10963381
O   -2.57693967 1.06950603 3.22162636
N   -0.34757333 -1.59530812 -0.08698538
N   -0.50458705 0.68864 2.23655908
N   1.08951384 -1.58833718 -1.9427848
N   -2.43839801 1.21844795 0.96132203
C   2.01639053 -1.00028115 0.07880792
C   -0.26940887 1.34225015 -0.10914622
C   0.70040523 -0.91307332 0.73650129
C   0.33257507 0.65649884 1.0860991
C   3.21154092 -0.58409714 0.85307591
C   0.56855766 1.72948712 -1.30067185
C   2.21561431 -1.14854162 -1.3053734
C   -1.74152498 1.44161806 -0.19079618
C   -0.14923473 -1.84713051 -1.43593818
C   -1.87135176 1.00701443 2.23780651
H   0.74402649 -1.41422224 1.62068361
H   1.32043229 1.1158077 1.32313204
H   3.18923453 0.50072465 0.95735261
H   3.29962298 -1.14502944 1.75727499
H   4.12440062 -0.80077558 0.31978539
H   0.28062362 1.18072611 -2.18457523
H   0.35143989 2.74460649 -1.61868583
H   1.54231921 1.457661 -0.97876978
H   -1.32800012 -1.47430663 0.21525535
H   -0.09922229 0.56251487 3.16066956
H   1.17083781 -1.77422334 -2.90765872
H   -3.45596439 1.26419747 0.89205158
*
