! Engrad def2-TZVPPD wB97M-D3BJ 
%pal nprocs 8 end%pal nprocs 32 end 
%tddft Nroots 2 Iroot 1 
sf true 
end 
*xyz 0 3 
O   -0.06720622 1.13490808 0.34774549
C   0.59307372 -0.11826416 0.08164231
C   -0.32136745 -1.02768568 -0.51061203
H   0.78993859 -0.49071885 1.14444368
H   1.55720498 0.07582186 -0.336263
H   -1.29790766 -1.23874378 0.04012401
H   -0.13984974 -1.71510509 -1.29651031
*
