! Engrad def2-TZVPPD wB97M-D3BJ 
%pal nprocs 8 end%pal nprocs 64 end 
 %tddft nroots 2 Iroot 2 
sf true 
end 
*xyz 0 3 
O   3.40904653509737 0.39312561836384 -0.7195473032366
O   -0.87408828579806 1.37894920362547 -2.47092210634956
O   0.42215032130972 -2.9234507993232 -0.55483581987697
O   -3.02266648714109 -1.77253396787022 -0.11854961120777
N   0.34379357794483 -1.36951371967497 1.10093354506681
N   -2.10974566253796 -0.04025244016864 1.04404856547916
N   1.610175216558 -0.99820879758038 -0.81179326993137
N   -1.57089857440191 -0.37100627190722 -1.18743781754347
C   1.88786400884407 0.46173098171706 1.07400812236253
C   -0.93923825195094 1.67212072131676 -0.1228417191273
C   0.41746879267937 0.0110014431284 1.51013374252654
C   -0.98423153737036 0.84382489508212 1.15765589526185
C   2.70654211892318 1.2815249925331 1.97581865345792
C   -0.97124912388299 3.14168054787139 -0.11142551398665
C   2.38053401395456 -0.00592135137314 -0.19857672120071
C   -1.10469914405842 0.93207173954665 -1.36391897467251
C   0.75718333586504 -1.84426883858296 -0.12477153923209
C   -2.2918300964317 -0.81407146816287 -0.07901182142157
H   0.42774004299454 0.00292533110046 2.60282503490428
H   -1.15190049419606 1.51363220430846 1.99728425365058
H   3.69319030205082 1.44347967698113 1.55370569319701
H   2.23799910896347 2.25189240921808 2.16978552390557
H   2.79944254842564 0.79164522491139 2.95189082777605
H   -1.96621206997107 3.49110146614098 0.19541118872733
H   -0.26196046411953 3.5533762969786 0.6072312454466
H   -0.76883935314367 3.53136228580577 -1.10458799528499
H   -0.28140823076316 -2.00081537286738 1.57222265612404
H   -2.61242319209519 -0.35435643030297 1.85541373079741
H   1.98027377405434 -1.37055371766094 -1.67111123282511
H   -1.70941272980285 -0.91549186315485 -2.02443723278706
*
