! Engrad def2-TZVPPD wB97M-D3BJ 
%pal nprocs 8 end%pal nprocs 64 end 
%tddft Nroots 2 Iroot 1 
sf true 
end 
*xyz 0 3 
O   2.51292217 1.24345452 -0.3629759
O   -0.78375297 0.83737716 -2.40193936
O   0.57212356 -2.68780841 -1.56335924
O   -2.47791866 -1.56822603 1.067875
N   0.59679391 -2.11072033 0.63955497
N   -1.8528595 0.58963453 1.42816001
N   1.61980403 -0.76435085 -0.9243066
N   -1.6870084 -0.32068056 -0.67017509
C   1.43717414 0.00411554 1.35420213
C   -0.8479379 1.9132358 -0.29778195
C   0.8146196 -1.15362316 1.60199001
C   -1.24814896 1.73981425 1.00362376
C   1.7131664 1.04912935 2.38412181
C   -0.18659979 3.14837204 -0.78633088
C   1.91604844 0.24436401 -0.01139556
C   -1.08572268 0.8225085 -1.22249811
C   0.90911816 -1.91919626 -0.68824416
C   -2.04553278 -0.52174719 0.63572987
H   0.44376456 -1.40383284 2.58295358
H   -1.11020408 2.50114328 1.74064823
H   1.35851691 2.01188539 2.04961609
H   1.22970948 0.79628837 3.33646479
H   2.77800136 1.15132932 2.55781691
H   -0.73806434 3.57115813 -1.63140267
H   -0.12039863 3.89808899 -0.00096804
H   0.81965355 2.91262904 -1.13598635
H   -0.02084619 -2.88011623 0.83220667
H   -2.10971437 0.48026724 2.39636344
H   1.82494467 -0.56613512 -1.89406535
H   -1.79748096 -1.11836218 -1.28405647
*
