! Engrad def2-TZVPPD wB97M-D3BJ 
%pal nprocs 8 end%pal nprocs 64 end 
%tddft 
 Iroot 1 Nroots 3 
sf true 
end 
*xyz 0 3 
O   3.3864878 -0.2446402 -0.0146389
O   -0.35613001 0.75178781 -2.7443378
O   -0.23654386 -2.73242328 -0.84064888
O   -3.52011641 -0.7305289 0.00230844
N   -0.27613881 -1.36851611 1.03446447
N   -2.01315463 0.79393105 0.82803611
N   1.52971771 -1.2980501 -0.4764172
N   -1.85665634 -0.00229078 -1.3164743
C   1.60590625 0.12634585 1.37053511
C   -0.10103357 1.35674422 -0.48812667
C   0.14146327 -0.10482704 1.57587224
C   -0.61051521 1.07127137 0.85338712
C   2.30585649 1.03792562 2.33344434
C   0.76750307 2.52500288 -0.62768823
C   2.24594394 -0.47639768 0.28989702
C   -0.72193898 0.70869151 -1.57109939
C   0.27907815 -1.84011815 -0.15242089
C   -2.50995038 -0.09702963 -0.14881251
H   -0.2271503 -0.03495154 2.64167272
H   -0.50605885 1.94058051 1.47409333
H   3.37059594 1.15605698 2.09704739
H   1.77723922 2.00876575 2.33202362
H   2.15237958 0.59605428 3.34006076
H   1.59456057 2.34639529 0.02244854
H   1.1041133 2.73906206 -1.59846912
H   0.1265093 3.30251498 -0.2470341
H   -1.23381225 -1.69309372 1.11823234
H   -2.47661849 0.67011931 1.66727476
H   1.95633138 -1.65920454 -1.31631388
H   -2.30068533 -0.58446984 -2.07986139
*
