! Engrad def2-TZVPPD wB97M-D3BJ 
%pal nprocs 8 end%pal nprocs 64 end 
%tddft Nroots 2 Iroot 1 
sf true 
end 
*xyz 0 3 
O   3.27428701 0.27979375 -0.92001842
O   -0.77364316 1.6335434 -2.32451693
O   0.40191359 -3.07434921 -0.22387721
O   -2.95529207 -1.84894249 -0.5035081
N   0.3709954 -1.37952509 1.27827694
N   -2.15703397 -0.26366794 0.91384147
N   1.535357 -1.16599315 -0.7293528
N   -1.53332555 -0.26844402 -1.30994807
C   1.83458431 0.49985733 0.95903917
C   -0.99083049 1.63548175 0.02353112
C   0.4186364 0.0260148 1.5470161
C   -1.15176599 0.72791738 1.18573323
C   2.59133115 1.55567513 1.65046171
C   -0.7518741 3.0841355 0.21144802
C   2.29872137 -0.0807686 -0.28216663
C   -1.07019069 1.05468952 -1.29210086
C   0.73546468 -1.9531259 0.07883551
C   -2.26287328 -0.87760151 -0.30158229
H   0.4600699 0.17579403 2.6116595
H   -1.45183673 1.27142411 2.07161435
H   3.57130224 1.67092872 1.23047163
H   2.07237229 2.50870095 1.57264102
H   2.64144075 1.326172 2.70638934
H   -1.61408485 3.55488935 0.67604
H   0.09202163 3.26897878 0.84413613
H   -0.56479259 3.5500375 -0.7465977
H   -0.2243561 -1.97295081 1.81243765
H   -2.66937412 -0.70895665 1.65374974
H   1.85513494 -1.61726423 -1.57635374
H   -1.62966521 -0.69246075 -2.21892318
*
