! EnGrad wB97M-D3BJ def2-TZVPPD 
%pal nprocs 8 end%pal nprocs 16 end 
%tddft 
 sf true 
 nroots 2 Iroot 2 end 
*xyz 0 3 
O   0.10947291091439 0.85604262597334 -0.00019628251869
C   0.68202472498135 -0.38268059157308 7.454291738e-05
C   -0.72847882518467 -0.54650762914065 -8.695338237e-05
H   1.23322569743806 -0.65211396243593 0.90120384236444
H   1.23300671849909 -0.65220026747056 -0.90119385661236
H   -1.26370083016344 -0.67104262628525 -0.9263902007874
H   -1.26335039648478 -0.66989754906786 0.92658890801899
*
