! Engrad def2-TZVPPD wB97M-D3BJ 
%pal nprocs 8 end%pal nprocs 64 end 
%tddft 
 Iroot 1 Nroots 3 
sf true 
end 
*xyz 0 3 
O   3.41262844 -1.12737312 -1.93325793
O   -2.36417869 1.8020875 -1.26333239
O   -0.96769511 -2.14988111 -1.94300453
O   -2.95368348 0.56274845 3.01695418
N   0.02231015 -1.67845697 0.08923846
N   -0.83941341 0.39038662 2.09987023
N   1.20543796 -1.42128046 -1.89101742
N   -2.61561381 1.23277537 0.84486061
C   2.20389458 -0.64813358 0.12469816
C   -0.32288076 1.21975802 -0.09727742
C   0.90009862 -0.7480992 0.78744542
C   0.19523331 0.6246862 1.1097121
C   3.36698454 0.03487879 0.75191201
C   0.63301503 1.71342272 -1.19453634
C   2.35825568 -1.11324711 -1.28735565
C   -1.79135925 1.44739888 -0.2955458
C   -0.05943371 -1.68274227 -1.29415898
C   -2.21107897 0.76750697 2.08051261
H   1.08280198 -1.20515827 1.82454165
H   0.92706343 1.28881928 1.62442828
H   3.13039994 0.47053679 1.75211818
H   4.18493995 -0.64663466 0.86704527
H   3.75315963 0.77770672 0.08360636
H   0.55502954 1.10751568 -2.12252931
H   0.55087615 2.76025935 -1.50599239
H   1.59575106 1.56847079 -0.8415005
H   -0.84188247 -1.80016825 0.55638144
H   -0.60646423 -0.05827839 2.99626845
H   1.25732385 -1.76513323 -2.90826006
H   -3.62245119 1.4511453 0.73395014
*
