! Engrad def2-TZVPPD wB97M-D3BJ 
%pal nprocs 8 end%pal nprocs 32 end 
%tddft Nroots 2 Iroot 1 
sf true 
end 
*xyz 0 3 
O   0.50785223 1.41372946 0.11848055
C   0.58190788 0.191745 -0.29284583
C   -0.44539241 -0.93388573 0.15995289
H   0.12559789 -1.74517387 0.65945107
H   1.43420959 -0.10734813 -0.88319928
H   -1.04600486 -1.37693831 -0.66759978
H   -1.08206774 -0.39854304 0.8595126
*
