! Engrad def2-TZVPPD wB97M-D3BJ 
%pal nprocs 8 end%pal nprocs 64 end 
 %tddft nroots 2 Iroot 2 
sf true 
end 
*xyz 0 3 
O   3.23724139039636 0.34235260828752 -0.91302723838993
O   -0.69925777731991 1.58334915121377 -2.31283276151578
O   0.40253859192415 -3.07878884336973 -0.29539795644818
O   -2.97973189445839 -1.81291206624664 -0.45982047372431
N   0.35270821090091 -1.41077474666315 1.24246631669178
N   -2.16274400851886 -0.21742332639274 0.94145020241777
N   1.54554361504694 -1.16800246595576 -0.74976461324639
N   -1.50215761409384 -0.28017711237323 -1.2797744206156
C   1.8150871575731 0.49762227669672 0.95190334733321
C   -0.92347775770529 1.63105819260138 0.04328609581802
C   0.38594217669114 -0.01205492964481 1.55189354640283
C   -1.12481627528068 0.72366008141428 1.21960238474937
C   2.53259122609226 1.56702046202785 1.64543645419072
C   -0.71428465833165 3.07260143980952 0.20387942915301
C   2.27252618959224 -0.0683197755272 -0.28942685320876
C   -1.01368741501395 1.02523566627921 -1.28031856419176
C   0.73373247685818 -1.96446019860393 0.03638522455606
C   -2.27119782580201 -0.8564919873156 -0.26903163071659
H   0.48035674956482 0.07762732206497 2.63620827531202
H   -1.38777372372476 1.29873684230806 2.10305721522817
H   3.52203865512538 1.70923021660749 1.22219662029001
H   1.98442415536977 2.52145830157005 1.55802542151658
H   2.6013904333226 1.36602719870345 2.71843143050156
H   -1.57163615793558 3.53043528665411 0.70882383516579
H   0.14900641751151 3.26970859756873 0.85644601620725
H   -0.55355281236998 3.55007399874144 -0.75678108956826
H   -0.26164802889873 -2.01973710595877 1.75576684964543
H   -2.69062683118928 -0.63703677769596 1.68532124483956
H   1.89136876333569 -1.6058535231755 -1.58783277084498
H   -1.59730342866215 -0.71916478362555 -2.18197153754857
*
