! Engrad def2-TZVPPD wB97M-D3BJ 
%pal nprocs 8 end%pal nprocs 32 end 
%tddft Nroots 2 Iroot 1 
sf true 
end 
*xyz 0 3 
O   0.74282463 1.41351389 0.13753148
C   0.63541803 0.10568304 -0.30021618
C   -0.55760704 -0.81269996 0.19716595
H   -0.15407155 -1.61180988 0.82895946
H   1.27550015 -0.30562792 -1.09831736
H   -1.01483123 -1.24811619 -0.7152879
H   -1.19065391 -0.17093858 0.78425697
*
