! Engrad def2-TZVPPD wB97M-D3BJ 
%pal nprocs 8 end%pal nprocs 32 end 
%tddft Nroots 2 Iroot 1 
sf true 
end 
*xyz 0 3 
O   0.72770055 1.34326751 0.300833
C   0.6934429 0.11040857 -0.27484725
C   -0.57379066 -0.74928946 0.00899493
H   -0.42933869 -1.41350712 0.88082955
H   1.43079829 -0.21774451 -1.13334613
H   -0.88726084 -1.27927406 -0.84645292
H   -1.45579352 -0.08908005 0.26986909
*
