! Engrad def2-TZVPPD wB97M-D3BJ 
%pal nprocs 8 end%pal nprocs 64 end 
%tddft Nroots 2 Iroot 2 
sf true 
end 
*xyz 0 3 
O   2.34313038 1.32537801 -0.41608998
O   -0.59767037 0.85084614 -2.3496631
O   0.66966585 -2.76292596 -1.47942232
O   -2.40434074 -1.59938269 1.11666761
N   0.77155686 -2.18532395 0.68618758
N   -2.07610599 0.64177615 1.3629097
N   1.69838293 -0.83446277 -0.90548534
N   -1.4719519 -0.38911942 -0.62603846
C   1.5958092 -0.05102001 1.35619767
C   -1.07403321 2.01509568 -0.35905568
C   0.96496972 -1.26979244 1.67125317
C   -1.61679047 1.83303529 0.90942356
C   1.84251994 1.0167627 2.37053423
C   -0.48584648 3.26665894 -0.84540861
C   1.90349703 0.27357095 -0.06269938
C   -1.03216037 0.80667566 -1.23274926
C   1.07057743 -1.99988679 -0.61944214
C   -1.96007297 -0.54038237 0.66318075
H   0.5839705 -1.53174182 2.62953581
H   -1.59890468 2.69081844 1.56563275
H   0.91545084 1.56710214 2.51524087
H   2.15253888 0.57513915 3.31404337
H   2.59191443 1.66327888 1.95361183
H   -1.30676203 3.81367115 -1.29086947
H   -0.02302266 3.80658955 0.08551112
H   0.39359567 3.10837219 -1.50454992
H   0.20492321 -3.01404243 0.81759186
H   -2.51081983 0.65206102 2.27251651
H   1.68490685 -0.68440842 -1.893922
H   -1.47212876 -1.21327001 -1.22710066
*
