! Engrad def2-TZVPPD wB97M-D3BJ 
%pal nprocs 8 end%pal nprocs 64 end 
%tddft 
 Iroot 1 Nroots 3 
sf true 
end 
*xyz 0 3 
O   1.21731039 0.3200136 0.85958426
C   0.07892093 0.43534721 0.15800012
C   -0.07742182 -0.63208667 -0.86192275
H   0.09124988 1.39924642 -0.30633187
H   -0.7783053 0.63781172 0.80005556
H   -0.82301368 -1.45544229 -0.9839721
H   0.74686171 -0.47976819 -1.5418575
*
