! EnGrad wB97M-D3BJ def2-TZVPPD 
%pal nprocs 8 end%pal nprocs 16 end 
%tddft 
 sf true 
 nroots 2 Iroot 1 end 
*xyz 0 3 
O   -0.04203479493523 0.76375715440419 -2.733868223e-05
C   0.75659663608506 -0.4679688496896 -9.00781978e-06
C   -0.73582949820762 -0.40291744410073 2.413574909e-05
H   1.27915537430958 -0.65357544463866 0.92589621879157
H   1.2791461706141 -0.6537322636894 -0.92589028708251
H   -1.26738591649997 -0.65197621816911 -0.91408769204524
H   -1.26744797136592 -0.65198693411669 0.91409397108909
*
