! Engrad def2-TZVPPD wB97M-D3BJ 
%pal nprocs 8 end%pal nprocs 32 end 
%tddft Nroots 2 Iroot 2 
sf true 
end 
*xyz 0 3 
O   0.15099747 1.19156642 0.00264354
C   0.58472905 -0.59789686 0.03129613
C   -0.7498835 -0.84291041 -0.02431682
H   1.12275933 -0.61331692 0.955292
H   1.0961108 -0.5492281 -0.90527959
H   -1.2395877 -0.70558974 -0.96186782
H   -1.35192715 -0.51295878 0.81063756
*
