! Engrad def2-TZVPPD wB97M-D3BJ 
%pal nprocs 8 end%pal nprocs 32 end 
%tddft Nroots 2 Iroot 2 
sf true 
end 
*xyz 0 3 
O   0.6428721 1.39800827 -0.1451532
C   0.28733653 0.27844699 0.53851589
C   -0.06841594 -0.88562873 -0.34986369
H   0.52093878 0.27091627 1.60864672
H   0.68545853 -1.42755712 -0.89691508
H   -0.70952419 -0.55039067 -1.17495479
H   -0.53313886 -1.6657577 0.24916591
*
