! Engrad def2-TZVPPD wB97M-D3BJ 
%pal nprocs 8 end%pal nprocs 64 end 
 %tddft nroots 2 Iroot 2 
sf true 
end 
*xyz 0 3 
O   3.36509125479989 0.42931148827291 -0.68693297079974
O   -0.77504919036272 1.35480159692839 -2.44479273789774
O   0.42515173689165 -2.96791062655301 -0.63192373529759
O   -3.08932480918944 -1.68641267061558 -0.09727759089215
N   0.30600614939115 -1.44829739365204 1.05054195592138
N   -2.09887089547396 0.00345131401877 1.0654959184146
N   1.65798846987804 -1.0651229238672 -0.79899147735975
N   -1.5774421145774 -0.35606020972776 -1.17079497771765
C   1.79409235150294 0.45093341304401 1.06510569945893
C   -0.82430292400845 1.63819368374338 -0.09438526828099
C   0.40360479571868 -0.08478785400852 1.52093844415343
C   -0.90382825162281 0.79832446700598 1.18878041689743
C   2.52604764134814 1.40931276410874 1.90620306738666
C   -0.83129964003321 3.10733860221997 -0.05741152914741
C   2.35096631907797 -0.02468247050852 -0.18599893424669
C   -1.03101321022786 0.91553071863944 -1.34161278171047
C   0.7589753228495 -1.90436473471798 -0.16235145363537
C   -2.31486588076994 -0.76245326522308 -0.05909803004832
H   0.43091249017901 -0.14286057291908 2.61314246207318
H   -1.03656357750212 1.48229344002894 2.02456499727704
H   3.47876705873225 1.66381375129015 1.45370270461513
H   1.9476824710722 2.3275861347858 2.05765031985108
H   2.69204583417352 0.98924551259774 2.904148963216
H   -1.79446021672546 3.46949617654919 0.32453764128169
H   -0.06664666054133 3.49117337834485 0.62170886622938
H   -0.68155926477418 3.51306684411101 -1.05330145304032
H   -0.3596422891268 -2.06929924856003 1.47713050705084
H   -2.61123317912376 -0.30035676318627 1.87528828858017
H   2.05512662448029 -1.42352586776562 -1.65179540379489
H   -1.74375641603581 -0.89273868438463 -2.0076719085379
*
