! Engrad def2-TZVPPD wB97M-D3BJ 
%pal nprocs 8 end%pal nprocs 32 end 
 %tddft nroots 2 Iroot 2 
sf true 
end 
*xyz 0 3 
O   2.65775291406525 1.13933496085265 -0.62578683022124
O   -0.51508482932241 0.84377829692805 -2.17523158680537
O   0.59583147797629 -2.80654177470124 -1.51273078908723
O   -2.50553395262209 -1.67749692004862 1.03598566314077
N   0.67558033378916 -2.08422028415174 0.64461368716725
N   -2.20476798176385 0.54764386875827 1.41602193759097
N   1.74702959503928 -0.89966059247678 -1.01743593063667
N   -1.59227192090095 -0.37296060268602 -0.59940270411873
C   1.58112116733464 0.05467704132719 1.18575852815122
C   -0.96638662090269 1.90420261355929 -0.09855419404176
C   0.92494815943567 -1.06118588875932 1.5291139955344
C   -1.62614689654451 1.74613120941116 1.05305593901094
C   1.86074966727926 1.18019322560262 2.12793453885394
C   -0.26881907651574 3.16229808505729 -0.50385533199291
C   2.05526962662387 0.18040212660477 -0.19277641275686
C   -0.98424490283311 0.79864634604306 -1.06034759298402
C   0.97965128903301 -1.99757691484612 -0.69708863314133
C   -2.13218507190831 -0.59039671014971 0.64606644956042
H   0.54445293388099 -1.22066247688507 2.52686325916873
H   -1.70198655153167 2.53451469611458 1.78637949721934
H   1.42795297915975 2.10623841632382 1.75323102175493
H   1.44877192592917 0.97093682709979 3.11276210740978
H   2.93162461373807 1.34865027285437 2.2235978029577
H   -0.6836800806757 3.55053345253454 -1.4317738255877
H   -0.35925356862599 3.92118090637483 0.2701987470979
H   0.78653020887977 2.96266977864717 -0.68383924416088
H   0.01948505903202 -2.80761074041374 0.88619946591635
H   -2.62197931878611 0.42837827094396 2.32104694750758
H   1.93286694445735 -0.77353117355734 -2.00067257895359
H   -1.5546781227204 -1.1735663163617 -1.21473393355394
*
