! Engrad def2-TZVPPD wB97M-D3BJ 
%pal nprocs 8 end%pal nprocs 64 end 
%tddft Nroots 2 Iroot 2 
sf true 
end 
*xyz 0 3 
O   2.45971483 1.33729753 -0.25423241
O   -0.61437811 0.80003984 -2.37387304
O   0.74019195 -2.60867226 -1.67865811
O   -2.85717692 -1.45286993 1.07672367
N   0.67002336 -2.09557692 0.57054402
N   -2.08201101 0.64693276 1.36707701
N   1.74734197 -0.75769945 -0.94051601
N   -1.69511562 -0.40069972 -0.67644494
C   1.43882753 -0.0164154 1.34825863
C   -0.80598248 1.84722821 -0.2783615
C   0.79790997 -1.23637755 1.62750814
C   -1.30890981 1.69836531 1.01777616
C   1.65703709 1.08741226 2.4080893
C   0.06608831 2.9961113 -0.69909645
C   1.94904395 0.2866575 0.03293605
C   -1.00394839 0.75533214 -1.19994389
C   0.99697657 -1.86179209 -0.76363157
C   -2.26065017 -0.50759365 0.60753265
H   0.34293884 -1.48634941 2.53618255
H   -1.04185888 2.3905486 1.73004525
H   1.82880681 1.99965356 1.86543852
H   0.80818901 1.29544096 3.12890815
H   2.47412218 0.83341431 3.09781833
H   0.03026828 3.08001899 -1.77286108
H   -0.1794001 3.90450479 -0.22778838
H   1.09068871 2.6658094 -0.4396309
H   0.01311209 -2.85574972 0.5574913
H   -2.38134188 0.56241079 2.28312642
H   1.80413134 -0.41963224 -1.8877687
H   -2.08103973 -1.10611373 -1.32932042
*
