! Engrad def2-TZVPPD wB97M-D3BJ 
%pal nprocs 8 end%pal nprocs 32 end 
%tddft Nroots 2 Iroot 2 
sf true 
end 
*xyz 0 3 
O   -0.08961976 0.76997174 0.00096894
C   0.78407554 -0.52240044 -0.00295693
C   -0.74019757 -0.38055363 -5.437e-05
H   1.31139457 -0.63650043 0.94752383
H   1.31646076 -0.63462625 -0.94479421
H   -1.27805094 -0.64345092 -0.91993325
H   -1.28188925 -0.63352606 0.92009338
*
