! Engrad wB97M-D3BJ def2-TZVPPD 
%pal nprocs 8 end%pal nprocs 16 end 
%tddft nroots 2 Iroot 1
 sf true 
end 
*xyz 0 3 
O   1.2994703922403 1.07735795805639 -0.09698666310581
C   0.92515318155822 -0.0022537075245 0.27643176542145
C   -0.31745736226849 -0.67890318696881 -0.2208954490589
H   1.50669227964229 -0.56244393016164 1.03335211426085
H   -0.05519201866889 -1.64373724323568 -0.65677260083069
H   -0.82162570141843 -0.05923788417252 -0.95574604715527
H   -0.98113278261856 -0.8817627743146 0.62061688046838
*
