! Engrad def2-TZVPPD wB97M-D3BJ 
%pal nprocs 8 end%pal nprocs 64 end 
%tddft 
 Iroot 2 Nroots 3 
sf true 
end 
*xyz 0 3 
O   0.2264177 -0.10560784 1.2124076
C   -0.03711776 0.03623456 -0.08964005
C   1.11856644 0.26578444 -1.01950814
H   -0.87696971 0.78355643 -0.05868711
H   -0.61324438 -0.81310095 -0.39343169
H   1.06238598 0.11022311 -2.0883461
H   1.8754362 0.77462118 -0.39352461
*
