! Engrad def2-TZVPPD wB97M-D3BJ 
%pal nprocs 8 end%pal nprocs 64 end 
%tddft 
 Iroot 1 Nroots 3 
sf true 
end 
*xyz 0 3 
O   3.73069788 0.12432281 0.35369052
O   -0.8301119 0.84139042 -2.67067851
O   0.54359811 -2.45003187 -1.35792784
O   -3.51826022 -1.28369628 0.31707964
N   0.03996773 -1.41958783 0.59749361
N   -2.20177982 0.3896167 1.02185409
N   2.06263554 -1.10636709 -0.47493971
N   -2.2723756 -0.15299148 -1.2661835
C   1.63388305 0.33687616 1.41213714
C   -0.54619438 1.28716967 -0.41595118
C   0.22356675 -0.19970436 1.43169143
C   -0.95337877 0.95968248 0.97272518
C   2.07486661 1.47249806 2.30606929
C   0.52685793 2.30651419 -0.65304983
C   2.53675196 -0.21081484 0.43551176
C   -1.20096411 0.70024782 -1.52151216
C   0.77939651 -1.66581419 -0.51425293
C   -2.77420302 -0.42747666 0.00254451
H   -0.19083099 -0.39858458 2.36711633
H   -0.83847435 1.69404864 1.69968913
H   3.09606058 1.20366636 2.82178815
H   2.10233482 2.38160615 1.71115656
H   1.39727087 1.6258679 3.07030241
H   1.3491191 1.76992071 -0.99966887
H   0.16395441 2.94261483 -1.52464641
H   0.69018781 3.00109228 0.19903462
H   -0.84518749 -1.83952382 0.51234073
H   -2.5361373 0.07372073 1.90826885
H   2.65188428 -1.30685771 -1.27710484
H   -2.47534535 -0.74024133 -2.09698168
*
