! Engrad def2-TZVPPD wB97M-D3BJ 
%pal nprocs 8 end%pal nprocs 32 end 
 %tddft nroots 2 Iroot 2 
sf true 
end 
*xyz 0 3 
O   3.30214637243523 0.54621143211454 -0.62990327570513
O   -0.64409616743578 1.22919906634218 -2.42653854945063
O   0.46530813948502 -2.96674741724391 -0.79204397512825
O   -3.22363961550116 -1.53254570138102 0.0124034500609
N   0.27229642586351 -1.53190117758475 0.95414872575202
N   -2.07796452100795 0.08759654797724 1.13288900286692
N   1.73701621564375 -1.08572835106699 -0.79274207758153
N   -1.64406561967799 -0.34241797704548 -1.11815450007338
C   1.6535400792253 0.46378249326852 1.05322436545745
C   -0.65716505886759 1.56758588938659 -0.07914472772965
C   0.38893613554591 -0.2113758370552 1.52836321426275
C   -0.79140773369413 0.74999168396292 1.22258117935561
C   2.27856539767344 1.51692192663732 1.87350758333164
C   -0.63462974253468 3.03923636138343 -0.05334027237337
C   2.31296897276484 0.01054673160235 -0.16732291841682
C   -0.94534631841881 0.84521281901811 -1.31646030371682
C   0.78666863211941 -1.93480336693082 -0.24891634305009
C   -2.37931500876364 -0.66947213031918 0.02164715490767
H   0.43453802991862 -0.34119025890558 2.61436876385794
H   -0.84135730747364 1.46267741757205 2.0442289661241
H   3.1466516890465 1.92529809204143 1.36725551592108
H   1.57523017444703 2.32670227180288 2.09166357678568
H   2.5830408268082 1.10837739376616 2.84283145462005
H   -1.58654847118927 3.42677031272098 0.32923305727687
H   0.14385763811888 3.4091373345658 0.61869675854406
H   -0.47638819859915 3.43440488502292 -1.05220202790474
H   -0.44238477847751 -2.14702088292997 1.3025734831529
H   -2.58287040408955 -0.18984023494591 1.95736185533257
H   2.16806288925146 -1.39971321883915 -1.64635243602352
H   -1.86904867261624 -0.88189610493748 -1.93925670045631
*
