! Engrad def2-TZVPPD wB97M-D3BJ 
%pal nprocs 8 end%pal nprocs 32 end 
%tddft Nroots 2 Iroot 1 
sf true 
end 
*xyz 0 3 
O   -0.1651358 0.978529 -0.23925181
C   0.77646556 -0.84654497 0.03604854
C   -0.60322546 -0.28235779 0.23057917
H   1.27813864 -1.30222428 0.83571385
H   0.86139363 -1.05271725 -1.00072216
H   -1.42834463 -0.50119329 -0.50131525
H   -1.04096598 -0.33221436 1.28996614
*
