! Engrad wB97M-D3BJ def2-TZVPPD 
%pal nprocs 8 end%pal nprocs 16 end 
%tddft nroots 2 Iroot 2
 sf true 
end 
*xyz 0 3 
O   0.339241717353 0.92124285473991 -0.00033194531848
C   0.73299369449276 -0.36990221922225 -9.462842522e-05
C   -0.67360617604485 -0.53738732832943 -0.00010950090105
H   1.26883982222058 -0.70001345893618 0.89438458150587
H   1.26910218405052 -0.70036752246112 -0.89428655942047
H   -1.21894498650908 -0.57158971385458 -0.92808866715096
H   -1.21795024451261 -0.57024240968779 0.92852671971031
*
