! Engrad def2-TZVPPD wB97M-D3BJ 
%pal nprocs 8 end%pal nprocs 64 end 
%tddft 
 Iroot 2 Nroots 3 
sf true 
end 
*xyz 0 3 
O   3.07108079 -0.76378771 -1.99121597
O   -2.13388902 1.39275947 -1.7775538
O   -0.98657142 -2.82883192 -1.0741721
O   -2.90502172 0.93097224 2.70600537
N   -0.025989 -1.63448641 0.54992021
N   -0.72667638 0.81763789 2.01927104
N   0.8847864 -1.51082912 -1.59435222
N   -2.46360794 0.76941387 0.45526954
C   2.1729862 -0.60334723 0.15823045
C   -0.24104319 1.35230622 -0.32421587
C   0.91929559 -0.53373882 0.99055612
C   0.27108523 0.8948646 1.04495822
C   3.36680758 0.0754532 0.68965748
C   0.72151821 1.81970226 -1.38451658
C   2.09461059 -0.97652377 -1.24965501
C   -1.69975457 1.25022265 -0.60060588
C   -0.07954236 -2.0981072 -0.7306208
C   -2.06513668 0.83911995 1.80422237
H   1.37716445 -0.74511649 1.9667591
H   1.05963587 1.5495316 1.32371757
H   3.62249734 -0.3602015 1.68498675
H   4.1450144 0.14973684 -0.02007217
H   3.28162479 1.19175206 0.79862339
H   0.64934968 2.89686496 -1.4100964
H   1.72066563 1.61768185 -1.1079113
H   0.52794959 1.48900659 -2.41348946
H   -0.87277224 -1.74202877 1.12413514
H   -0.47528957 0.74242589 3.00858169
H   0.72677933 -1.70229409 -2.57439467
H   -3.4241509 0.78755407 0.3077964
*
