! Engrad def2-TZVPPD wB97M-D3BJ 
%pal nprocs 8 end%pal nprocs 32 end 
%tddft Nroots 2 Iroot 2 
sf true 
end 
*xyz 0 3 
O   -0.34466086 1.30136544 0.04914279
C   0.78825889 -1.16142071 -0.03473219
C   -0.46826369 -0.38368727 -0.02608426
H   1.42503619 -0.92234383 0.86161664
H   1.41300899 -1.10467682 -0.93310428
H   -1.05630482 -0.6476304 -0.91011075
H   -0.93927315 -0.68876973 0.91077322
*
