! Engrad def2-TZVPPD wB97M-D3BJ 
%pal nprocs 8 end%pal nprocs 64 end 
%tddft 
 Iroot 2 Nroots 3 
sf true 
end 
*xyz 0 3 
O   2.38491799 -0.81975868 -2.67889265
O   -2.27090805 1.66147634 -1.19049896
O   -1.36650444 -2.71010955 -1.02303998
O   -2.28367608 0.88849362 3.32430086
N   -0.00547794 -1.67063405 0.44705611
N   -0.26078073 0.7485406 2.18502529
N   0.35090073 -1.50852181 -1.86418344
N   -2.26424791 1.13353618 1.0353652
C   2.05930681 -0.70397506 -0.3850158
C   -0.11079922 1.35395538 -0.22400159
C   1.11837209 -0.778368 0.71188074
C   0.58195953 0.78842621 0.99100831
C   3.51795991 -0.35656694 -0.05885657
C   0.73863608 1.89477736 -1.30330783
C   1.67543481 -1.05621173 -1.67620305
C   -1.60996503 1.44474894 -0.17343231
C   -0.43293739 -2.00462167 -0.80508277
C   -1.61952406 0.88352378 2.29022647
H   1.51298997 -1.0630064 1.62935692
H   1.46907607 1.35002355 1.23275724
H   3.84051644 -0.97300037 0.78205934
H   4.10235097 -0.61571055 -0.95007959
H   3.66875058 0.72934259 0.03587624
H   0.89301665 2.89646438 -1.183865
H   1.68121579 1.3780508 -1.29977557
H   0.17071672 1.70137738 -2.27327078
H   -0.68225038 -1.76316334 1.12711701
H   0.2012825 0.70433364 3.08384672
H   0.06227515 -1.40358293 -2.88158169
H   -3.24506167 1.20720906 1.0060765
*
