! Engrad def2-TZVPPD wB97M-D3BJ 
%pal nprocs 8 end%pal nprocs 64 end 
%tddft Nroots 2 Iroot 2 
sf true 
end 
*xyz 0 3 
O   3.21403986 0.40426806 -0.88278825
O   -0.6466516 1.53252845 -2.31164495
O   0.39466664 -3.09844184 -0.30288533
O   -3.02962195 -1.78348916 -0.43765567
N   0.35451241 -1.42937125 1.2102117
N   -2.01624703 -0.24534816 0.96693991
N   1.53414167 -1.12965017 -0.73749631
N   -1.50319218 -0.31167574 -1.24928819
C   1.66091611 0.56600691 0.87599933
C   -0.90075976 1.64675665 0.02857082
C   0.41102838 -0.04040007 1.50530123
C   -0.96915526 0.71989037 1.19303856
C   2.40942654 1.53596359 1.69105723
C   -0.62959743 3.06859284 0.22548388
C   2.22301845 -0.00398226 -0.2809491
C   -1.03130195 1.02275677 -1.27254286
C   0.72795982 -1.97061091 -0.00753406
C   -2.28607775 -0.87164155 -0.2330656
H   0.49016261 0.04274397 2.60706781
H   -1.15934115 1.33664674 2.08591639
H   3.36035388 1.58043858 1.18172417
H   1.95042403 2.49961207 1.65584886
H   2.57248076 1.21354506 2.69150689
H   -1.58533714 3.50480515 0.56860999
H   0.07776924 3.23456063 1.0197529
H   -0.39606454 3.56636839 -0.67687388
H   -0.44021204 -1.93904939 1.60412445
H   -2.6104063 -0.52880646 1.72942486
H   1.91681848 -1.54622538 -1.59376033
H   -1.6004802 -0.72012064 -2.16861774
*
