! EnGrad wB97M-D3BJ def2-TZVPPD 
%pal nprocs 8 end%pal nprocs 16 end 
%tddft 
 sf true 
 nroots 2 Iroot 1 end 
*xyz 0 3 
O   0.17605532892763 0.90402229621907 -0.00064362861931
C   0.66272972996419 -0.35618145604938 -4.33396932e-05
C   -0.73107787281715 -0.6071382495881 6.940581384e-05
H   1.21879597205103 -0.64800402522926 0.8950155941231
H   1.21865857624425 -0.64832163896054 -0.89509118310083
H   -1.27177793943851 -0.68263808363941 -0.92808520502043
H   -1.27118379493144 -0.68013884275238 0.92877835649682
*
