! Engrad def2-TZVPPD wB97M-D3BJ 
%pal nprocs 8 end%pal nprocs 32 end 
 %tddft nroots 2 Iroot 1 
sf true 
end 
*xyz 0 3 
O   2.92208578662245 1.25217806829608 -0.5020641956436
O   -0.53799634157908 0.42658179196274 -1.84925283212584
O   1.41978358425086 -2.83324731364303 -1.81397203242583
O   -3.09280884373844 -1.3645109668443 1.43954049548164
N   0.79592721190645 -2.03813269187284 0.22608691993804
N   -2.37556473112106 0.78751177144744 1.66372841896123
N   2.21454638321221 -0.81134542001938 -1.10888447785475
N   -1.91583245847588 -0.38917022364442 -0.25419305123655
C   1.51450846813542 0.09089254077858 1.01302078520651
C   -0.98894388531299 1.82005139064742 0.02169033827162
C   0.83310008925137 -1.04951115999997 1.1789702359491
C   -1.65670338263799 1.86092547292703 1.17883420976286
C   1.61257052923412 1.15989853880238 2.05293428565064
C   -0.18106074567645 2.95494600050344 -0.52012745429553
C   2.27184957792073 0.26411220510156 -0.23011092270225
C   -1.09541419940265 0.60593483470335 -0.78850428314481
C   1.47044266764146 -1.96323045820741 -0.97713106254733
C   -2.51190300726511 -0.40227827149626 0.98611151051305
H   0.26294422790688 -1.25456207256586 2.07322028786359
H   -1.64169354591879 2.7292806291765 1.81972912698417
H   1.3430766565868 2.128490426308 1.639683069392
H   0.95786618099321 0.93959282261673 2.89351546052789
H   2.6344225193211 1.24568940554361 2.41874099418346
H   -0.55903034853271 3.26054062665816 -1.49382656864752
H   -0.21653192812655 3.80789633271868 0.15403731806337
H   0.85751239092342 2.66123948651745 -0.65981824933807
H   0.26104394463705 -2.8751932581608 0.37176267644944
H   -2.83069450214384 0.82993594709802 2.55730990168477
H   2.67557154099655 -0.68984816383762 -1.99657261130696
H   -1.99047383960854 -1.23966829151537 -0.78985829361438
*
