! EnGrad wB97M-D3BJ def2-TZVPPD 
%pal nprocs 8 end%pal nprocs 16 end 
%tddft 
 sf true 
 nroots 2 Iroot 2 end 
*xyz 0 3 
O   0.72291060986119 1.3549034221058 0.01158128508347
C   0.55078264903878 0.19414929040241 0.261204606898
C   -0.4523793993495 -0.79705292331829 -0.24169390213911
H   1.2365739153771 -0.27893978506978 0.99853634888549
H   0.08897947129913 -1.64294489737446 -0.66519422826919
H   -1.13111518027151 -0.37698279727498 -0.97922198069926
H   -1.01355206595519 -1.17153230947071 0.6147878702406
*
