! Engrad def2-TZVPPD wB97M-D3BJ 
%pal nprocs 8 end%pal nprocs 32 end 
%tddft Nroots 2 Iroot 1 
sf true 
end 
*xyz 0 3 
O   0.29468636 0.98627719 -0.00378681
C   0.63689944 -0.31834509 0.00052508
C   -0.74451571 -0.6927118 -0.0006288
H   1.19972736 -0.62180684 0.89736999
H   1.20169249 -0.62883758 -0.88978775
H   -1.28941427 -0.70443566 -0.91928866
H   -1.28748045 -0.70536084 0.93348721
*
