! Engrad def2-TZVPPD wB97M-D3BJ 
%pal nprocs 8 end%pal nprocs 64 end 
 %tddft nroots 2 Iroot 2 
sf true 
end 
*xyz 0 3 
O   3.87234133855516 0.43776046373873 0.43161817584358
O   -1.51976252080375 0.77901293788169 -2.5501958685639
O   1.19395771674454 -2.64234040561048 -1.54850381341769
O   -3.78327703238106 -0.66753665966597 1.02779292542027
N   0.2958199063531 -1.359844330105 0.08925660357331
N   -1.90662729190011 0.57678285737836 1.39921535784273
N   2.52862185764239 -1.13456895471543 -0.49795807522351
N   -2.36640610836825 -0.276308877241 -0.71466541960938
C   1.66968068473893 0.27408673570837 1.25381283492987
C   -0.68846404875136 1.40080792668487 -0.41341625210606
C   0.37411581917996 -0.40183776147317 1.15631405140804
C   -0.49343472622599 0.80941137207234 0.97287352926934
C   1.97849098461074 1.20898910797109 2.35861620005463
C   -0.5663406511439 2.85431098763919 -0.63646452277142
C   2.77757419369977 -0.09690136381577 0.38580117946673
C   -1.50585109211793 0.62460110975334 -1.34970626276012
C   1.32011983978063 -1.77931624933122 -0.71033975330314
C   -2.76281772542884 -0.15916483325653 0.62418929383312
H   0.12594584460347 -0.88249877745015 2.11406668482099
H   -0.15019125533003 1.60587731247007 1.61853256701908
H   1.91128991344128 2.25448229701322 2.03778304595787
H   1.3055596009397 1.0745480998209 3.20436742678111
H   3.00946945873927 1.06494800685488 2.67400971779369
H   -1.45163458227914 3.38137840090805 -0.25551281276412
H   0.3048046418544 3.26850487683919 -0.13269271235861
H   -0.51435907568197 3.05662657974565 -1.7039697339536
H   -0.56845607851804 -1.84570865149523 -0.06657701547133
H   -2.18504131984426 0.63419172988141 2.36462764084307
H   3.27699387414095 -1.39697049387645 -1.11826801008806
H   -3.02952216624965 -0.74832344432497 -1.31000698246656
*
