! Engrad def2-TZVPPD wB97M-D3BJ 
%pal nprocs 8 end%pal nprocs 64 end 
%tddft Nroots 2 Iroot 2 
sf true 
end 
*xyz 0 3 
O   2.49127954 1.24124719 -0.49369879
O   -0.66545556 0.86042569 -2.30505836
O   0.59223636 -2.71623153 -1.59849411
O   -2.38914486 -1.62201158 1.14817254
N   0.6905054 -2.16279841 0.66072693
N   -2.05301248 0.63419732 1.42073159
N   1.62400713 -0.79859292 -0.96540552
N   -1.60693703 -0.35298163 -0.61000025
C   1.6183111 -0.04116959 1.31346757
C   -1.00885399 1.97394011 -0.26432266
C   0.95567264 -1.25390135 1.63251887
C   -1.46399212 1.79003485 0.97522511
C   1.91053853 1.05042846 2.32086317
C   -0.35489951 3.2349699 -0.72511254
C   1.96926968 0.21733497 -0.06952314
C   -1.09159784 0.82317747 -1.16271838
C   0.90690887 -1.94297276 -0.71172227
C   -2.02204648 -0.5513299 0.70590148
H   0.68700918 -1.46683117 2.59852258
H   -1.52235964 2.58691611 1.70425897
H   1.47812912 2.01349224 1.93484038
H   1.54701806 0.82555103 3.28622495
H   2.9972042 1.19933251 2.32295448
H   -0.8025243 3.64003923 -1.65021348
H   -0.44460134 3.8988505 0.11443609
H   0.70761771 3.07470725 -0.97095517
H   0.00022129 -2.92029195 0.82097474
H   -2.44213197 0.56605606 2.35412414
H   1.69296931 -0.63630471 -1.93638268
H   -1.48595381 -1.21632406 -1.1760728
*
