! Engrad def2-TZVPPD wB97M-D3BJ 
%pal nprocs 8 end%pal nprocs 64 end 
%tddft 
 Iroot 1 Nroots 3 
sf true 
end 
*xyz 0 3 
O   1.33169892 0.66447431 0.53491493
C   0.07401918 0.38533183 0.2036543
C   -0.17418688 -0.97179929 -0.51717308
H   -0.34654698 1.16795729 -0.61243499
H   -0.67945283 0.6028363 1.08169129
H   -1.00603832 -0.81995724 -1.20565028
H   0.63037335 -1.60462675 -0.82876985
*
