! Engrad def2-TZVPPD wB97M-D3BJ 
%pal nprocs 8 end%pal nprocs 32 end 
%tddft Nroots 2 Iroot 1 
sf true 
end 
*xyz 0 3 
O   0.52177002 0.89364749 0.67527455
C   0.45472237 -0.31897014 0.12768648
C   -0.71094742 -0.4989346 -0.88464702
H   0.58596701 -1.11173738 0.80263914
H   1.48311805 -0.46481176 -0.32755055
H   -1.19344667 0.43052338 -1.1311432
H   -1.36012939 -1.39300613 -0.98724035
*
