! Engrad def2-TZVPPD wB97M-D3BJ 
%pal nprocs 8 end%pal nprocs 64 end 
%tddft 
 Iroot 2 Nroots 3 
sf true 
end 
*xyz 0 3 
O   3.14110144 0.15443061 -1.77285819
O   -2.12600906 0.56087527 -1.88369844
O   -0.58906255 -2.35409224 -1.33969554
O   -2.92237095 -0.37161111 2.52701934
N   0.30553567 -1.50938046 0.60229998
N   -1.0947053 0.69546974 1.95267743
N   1.35430697 -1.18081089 -1.50720157
N   -2.44297412 -0.09845777 0.32301169
C   2.1071372 0.04170018 0.33411979
C   -0.45833897 1.21437879 -0.3040545
C   0.99661465 -0.39141417 1.11528139
C   0.03338396 0.89278824 1.05400245
C   3.06562772 1.0497219 0.96239572
C   0.20032337 2.08152349 -1.32783286
C   2.22592246 -0.20166978 -1.0636042
C   -1.69593838 0.50021301 -0.73555224
C   0.23999865 -1.7126649 -0.78892519
C   -2.19179351 -0.01214731 1.65031117
H   1.40491098 -0.48966652 2.19284769
H   0.59900465 1.67892815 1.41118798
H   2.73076384 1.26770683 1.93692453
H   4.0417338 0.67090333 0.86499798
H   3.096774 2.07966308 0.48890436
H   -0.29225388 2.96661251 -1.62002353
H   1.15241358 2.34515724 -0.91528753
H   0.48709661 1.59966855 -2.30033247
H   -0.53184018 -1.75823496 1.05367026
H   -0.93790411 0.68767927 2.96925478
H   1.4705248 -1.51937895 -2.47719932
H   -3.07420107 -0.84467792 0.03314432
*
