! Engrad def2-TZVPPD wB97M-D3BJ 
%pal nprocs 8 end%pal nprocs 64 end 
%tddft 
 Iroot 2 Nroots 3 
sf true 
end 
*xyz 0 3 
O   3.13767166 0.63734177 -0.56859931
O   -0.51178167 1.23260002 -2.40469081
O   0.48799361 -3.00018135 -0.49439357
O   -3.0239006 -1.87497204 -0.31093059
N   0.12026779 -1.35061808 0.97165485
N   -2.18427022 -0.06847994 0.92188376
N   1.65555706 -0.99101185 -0.74628862
N   -1.79980173 -0.27669785 -1.32971664
C   1.65139305 0.39619314 1.19429486
C   -0.7421642 1.54291476 -0.11887342
C   0.312167 -0.09394593 1.50560934
C   -0.93568185 0.76471658 1.11051639
C   2.22302636 1.5148124 2.11455549
C   -0.13803758 2.92716773 -0.06557288
C   2.24947848 0.05358625 -0.04327079
C   -0.95652967 0.83886865 -1.34573579
C   0.74217346 -1.88206753 -0.17315308
C   -2.3779857 -0.83050899 -0.21688476
H   0.2926241 -0.12054092 2.64055294
H   -1.08755403 1.50158232 1.86975998
H   2.7025128 1.04140796 2.96763754
H   2.80281958 2.1225396 1.48199315
H   1.30903772 2.08401481 2.47982112
H   -0.66203956 3.69165963 -0.66100792
H   -0.19536098 3.3627047 0.93555044
H   0.85898236 2.96927188 -0.43444557
H   -0.68525183 -1.90182775 1.21272777
H   -2.85637451 -0.18167622 1.66593951
H   2.24450995 -1.46332819 -1.46166812
H   -1.73561546 -0.81353105 -2.15795773
*
