! Engrad def2-TZVPPD wB97M-D3BJ 
%pal nprocs 8 end%pal nprocs 64 end 
%tddft 
 Iroot 1 Nroots 3 
sf true 
end 
*xyz 0 3 
O   3.55601864 0.36522762 0.50763753
O   -0.8774776 0.88369523 -2.90706852
O   0.64839714 -2.7788371 -1.05664023
O   -3.80478352 -0.78425486 -0.04650164
N   -0.05059464 -1.4530759 0.67205619
N   -2.17697892 0.53428347 0.89143917
N   2.17124424 -1.24218176 -0.14998759
N   -2.07870305 -0.26504124 -1.40294366
C   1.49399587 0.25913358 1.55331365
C   -0.38369496 1.22903057 -0.58617004
C   0.09443745 -0.17145393 1.3808636
C   -0.79951297 0.97276936 0.81064864
C   1.86803126 1.29825453 2.46039516
C   0.74391933 2.17243695 -0.73614028
C   2.49977919 -0.20890759 0.62907426
C   -1.10250517 0.68357188 -1.71247477
C   0.88688391 -1.944023 -0.21524672
C   -2.78034243 -0.17173628 -0.14918117
H   -0.34765145 -0.29795316 2.37311183
H   -0.7363631 1.93140993 1.40929266
H   2.32983264 2.21431009 1.94884597
H   1.06820292 1.50384135 3.16373343
H   2.72728971 0.8302098 3.06879864
H   1.7373336 1.79693987 -0.81938871
H   0.65763501 2.89960943 -1.60403578
H   0.80390644 2.87425918 0.18423857
H   -0.9167117 -1.97999677 0.60597543
H   -2.61250463 0.37426032 1.77347085
H   2.85941162 -1.41105708 -0.86323363
H   -2.69147293 -0.42161292 -2.20759022
*
