! Engrad def2-TZVPPD wB97M-D3BJ 
%pal nprocs 8 end%pal nprocs 64 end 
%tddft Nroots 2 Iroot 2 
sf true 
end 
*xyz 0 3 
O   2.84952755 1.2733945 -0.50976771
O   -0.49568932 0.50470147 -1.97391336
O   1.32975735 -2.85782167 -1.64693912
O   -3.03924665 -1.4839419 1.19518817
N   0.664516 -1.94713451 0.33577357
N   -2.2176472 0.6101595 1.60259529
N   2.08852874 -0.79828745 -1.04552129
N   -1.86545525 -0.39578975 -0.43540546
C   1.28578669 0.29621352 0.95061328
C   -0.7445628 1.681624 0.06428895
C   0.65192256 -0.93315239 1.23759639
C   -1.46824914 1.68073026 1.20568461
C   1.47103143 1.30665793 2.01531849
C   -0.00073091 2.87640974 -0.42538751
C   2.10979411 0.33849249 -0.22422665
C   -0.98267876 0.58240468 -0.8772766
C   1.35648682 -1.93811947 -0.85464067
C   -2.41455505 -0.50659855 0.8220397
H   0.12636219 -1.07475126 2.15455468
H   -1.44392512 2.51259763 1.87960754
H   1.36522156 2.32095677 1.65115948
H   0.7714527 1.15717912 2.83570289
H   2.49367755 1.24572848 2.40418041
H   -0.44186748 3.20335385 -1.35626147
H   -0.05636311 3.67843013 0.30005352
H   1.0477951 2.6629155 -0.63011503
H   0.12640949 -2.77816445 0.52035181
H   -2.69935501 0.5964853 2.49209679
H   2.60582531 -0.72627038 -1.90573659
H   -2.00560799 -1.19030286 -1.03993253
*
