! Engrad def2-TZVPPD wB97M-D3BJ 
%pal nprocs 8 end%pal nprocs 32 end 
%tddft Nroots 2 Iroot 1 
sf true 
end 
*xyz 0 3 
O   0.41151252 1.05536827 -0.00577382
C   0.61463716 -0.27430975 0.00031121
C   -0.74795491 -0.73929734 0.00187055
H   1.17728321 -0.6051027 0.88491853
H   1.19014234 -0.60411554 -0.86805547
H   -1.30932222 -0.74569045 -0.91568145
H   -1.30164604 -0.74100676 0.93135773
*
