! Engrad def2-TZVPPD wB97M-D3BJ 
%pal nprocs 8 end%pal nprocs 32 end 
%tddft Nroots 2 Iroot 2 
sf true 
end 
*xyz 0 3 
O   0.55950332 0.50209878 -0.79654125
C   0.3203041 0.08978806 0.42709204
C   -0.90885642 -0.62869041 0.40927493
H   0.37233744 0.82610823 1.21183098
H   1.24391078 -0.62100061 0.67092585
H   -1.56189373 -0.71838621 -0.48708423
H   -1.08387445 -1.11989442 1.33890846
*
