! Engrad def2-TZVPPD wB97M-D3BJ 
%pal nprocs 8 end%pal nprocs 64 end 
%tddft 
 Iroot 1 Nroots 3 
sf true 
end 
*xyz 0 3 
O   1.13879415 -0.82341818 0.14473841
C   0.54871836 0.43360074 0.46050725
C   -0.57414514 0.67484843 -0.41245282
H   1.39782145 1.03565941 0.23952799
H   0.38159548 0.46944903 1.55497949
H   -1.68090631 0.58597415 -0.03154503
H   -0.42600209 0.59227609 -1.50756983
*
