! Engrad def2-TZVPPD wB97M-D3BJ 
%pal nprocs 8 end%pal nprocs 32 end 
 %tddft nroots 2 Iroot 2 
sf true 
end 
*xyz 0 3 
O   4.00847098522455 -0.41712464029845 1.52031659368268
O   -2.27767161383726 1.77012498021712 -2.14672232606959
O   1.48319745597631 -2.72734007129849 -1.39886339234505
O   -3.56017731990104 -1.48462544024554 0.68188959810716
N   0.51349397615638 -0.9121302870041 -0.40015103199968
N   -1.90445654804864 -0.082738003297 1.36163765873171
N   2.55416092329132 -1.73402656387569 0.35378001065938
N   -2.64207322749711 -0.0514950689104 -0.83339716217222
C   1.77645530679905 0.34881954849047 1.19459788975843
C   -1.09182459104262 1.62492719498142 -0.11097469137501
C   0.46401411573899 -0.25408174617646 0.89641777521611
C   -0.71560056966838 0.71898372233984 1.01590992181359
C   2.04012827190161 1.74808863044578 1.45042052225761
C   -0.53043666054897 2.96999871771074 -0.18830515526292
C   2.88915122350038 -0.59546971729778 1.08391926236044
C   -2.02201241402171 1.16913232250589 -1.11891367223992
C   1.4909541817286 -1.8603084178843 -0.56101993795957
C   -2.75951305823254 -0.61030358472926 0.43782042468911
H   0.32293028530648 -1.04617524048577 1.65398854599096
H   -0.51266860448405 1.35030630027081 1.88186826634583
H   1.92709340348194 2.35155073152464 0.52086986285608
H   1.29779079335171 2.20033402848513 2.1205306184999
H   3.04718655922968 1.89075638916397 1.82925306338338
H   -0.56162172241781 3.47533494321339 0.78250778174038
H   0.55160660704774 2.94692637430183 -0.44369168114573
H   -1.03167287290892 3.56191350614451 -0.94678966134883
H   -0.35417498228207 -1.11685202909617 -0.87179863531147
H   -1.9148908409437 -0.57578418289585 2.2373441365159
H   3.3053454859436 -2.38845848668725 0.19580855951864
H   -3.34058454884355 -0.35528390961304 -1.49365314489735
*
