! Engrad def2-TZVPPD wB97M-D3BJ 
%pal nprocs 8 end%pal nprocs 64 end 
%tddft Nroots 2 Iroot 1 
sf true 
end 
*xyz 0 3 
O   3.56098964 0.05045841 -0.33457742
O   -0.77846358 1.55239816 -2.32097233
O   0.41659523 -2.91301236 -1.09656166
O   -3.39344756 -1.42084416 -0.05426198
N   0.18233696 -1.60657148 0.68540836
N   -2.22276386 0.14096518 1.09005343
N   1.70354837 -1.05159224 -0.88525288
N   -1.91040849 -0.04735577 -1.19467411
C   1.66512382 0.22924159 1.1944295
C   -0.68917418 1.62351167 0.0075984
C   0.31583611 -0.37509187 1.37367383
C   -0.85016913 0.74533076 1.20409003
C   2.31979762 1.33353773 2.00193839
C   -0.00694889 2.89542879 0.13617679
C   2.4000162 -0.22186937 -0.04226601
C   -1.05818046 1.10752231 -1.24453152
C   0.71449767 -1.95012954 -0.49731596
C   -2.58692451 -0.5373886 -0.05380782
H   0.14570748 -0.58614191 2.41373176
H   -0.83253235 1.28806322 2.16568868
H   3.15784065 0.92273178 2.5774517
H   2.6565043 2.14853067 1.32706556
H   1.60553352 1.74684049 2.77550304
H   -0.62715485 3.80017576 0.24517291
H   0.75881252 2.848084 0.86203537
H   0.49925963 3.05866751 -0.86832846
H   -0.53683653 -2.23105607 0.92483685
H   -2.58202162 -0.35056799 1.9143137
H   2.31436729 -1.46597468 -1.60095881
H   -2.26878846 -0.38509227 -2.06601699
*
