! Engrad def2-TZVPPD wB97M-D3BJ 
%pal nprocs 8 end%pal nprocs 64 end 
%tddft 
 Iroot 1 Nroots 3 
sf true 
end 
*xyz 0 3 
O   0.14227517 0.99628976 0.76487703
C   0.49476854 -0.30459707 0.43578483
C   0.57795131 -0.56433058 -1.04492392
H   -0.24733947 -0.93094919 0.98172631
H   1.48683021 -0.65676108 0.73043287
H   1.45985475 -0.94444897 -1.6031198
H   0.0094052 -0.12622072 -1.80320928
*
