! EnGrad wB97M-D3BJ def2-TZVPPD 
%pal nprocs 8 end%pal nprocs 16 end 
%tddft 
 sf true 
 nroots 2 Iroot 1 end 
*xyz 0 3 
O   0.06988424912635 0.82773780832439 -8.437649955e-05
C   0.69654339356255 -0.40027545816402 8.518516759e-05
C   -0.72781655741658 -0.50757614322786 -0.00011282781946
H   1.24261873519864 -0.65378694010116 0.90603193145925
H   1.24243119341592 -0.65396835473702 -0.90595536939957
H   -1.26087681450408 -0.66547014201549 -0.92391057112193
H   -1.2605841993828 -0.66506077007884 0.92394602821367
*
