! Engrad def2-TZVPPD wB97M-D3BJ 
%pal nprocs 8 end%pal nprocs 64 end 
%tddft 
 Iroot 2 Nroots 3 
sf true 
end 
*xyz 0 3 
O   3.13678575 0.67464276 -0.690289
O   -0.47099796 1.36808852 -2.41659298
O   0.48854305 -3.13335771 -0.50449031
O   -2.97161119 -1.81077659 -0.23122988
N   0.12341885 -1.44429122 1.05771711
N   -2.17425494 -0.09192049 0.96872136
N   1.72840456 -1.15469928 -0.66193631
N   -1.64380434 -0.29885814 -1.35032115
C   1.50958271 0.49314864 1.03630627
C   -0.7275971 1.60757703 -0.01302004
C   0.26670019 -0.10870776 1.56012853
C   -1.10452086 0.79310037 1.15776662
C   2.17138455 1.53482941 1.98813164
C   -0.12886407 2.94729159 -0.11904281
C   2.22120277 0.04677501 -0.15997328
C   -0.96566243 0.99111079 -1.36566474
C   0.76832269 -2.04113271 -0.04057799
C   -2.33055493 -0.79198313 -0.1793536
H   0.28171045 -0.14499479 2.68550925
H   -1.35216555 1.3895772 1.98700595
H   2.60569008 0.89164456 2.73951951
H   2.89001592 2.0764691 1.45994382
H   1.40656311 2.16146428 2.47848152
H   -0.77342887 3.58977325 -0.73369983
H   -0.05024446 3.4463387 0.81045559
H   0.84031911 2.86272125 -0.59989738
H   -0.70283037 -1.95140393 1.36661613
H   -2.89574849 -0.24055366 1.66100725
H   1.90402849 -1.30280354 -1.60558142
H   -1.75693375 -0.82781036 -2.2458551
*
