! Engrad def2-TZVPPD wB97M-D3BJ 
%pal nprocs 8 end%pal nprocs 32 end 
 %tddft nroots 2 Iroot 2 
sf true 
end 
*xyz 0 3 
O   2.50046410662839 1.32957901346925 -0.16291263016785
O   -1.02713729457436 0.83578801647107 -2.5567063850874
O   0.46176812674059 -2.49170709417592 -1.54502689082874
O   -2.55082560483471 -1.53641593362747 1.01025801322679
N   0.54485530996055 -2.04164230714591 0.68508546411711
N   -1.76398673836207 0.57165315229607 1.34630842418392
N   1.53786897082516 -0.61245384879548 -0.82302651519099
N   -1.84607831614699 -0.2989642440189 -0.77657174561403
C   1.49198352437431 -0.01600327033637 1.51098881808887
C   -0.8684834610375 1.8843369534906 -0.43243668900439
C   0.84577281584219 -1.17150728612587 1.70571489104555
C   -1.11876013227 1.69057517056626 0.86651632589005
C   1.84094113623187 0.94276292479606 2.60241782536726
C   -0.17777982313808 3.08877568477607 -0.98257311634634
C   1.90074494460908 0.32136530541366 0.14647416837349
C   -1.23768753473428 0.81600437703269 -1.36503150584888
C   0.82229172918369 -1.77708199508932 -0.63832635355223
C   -2.09832459715764 -0.50404349282209 0.5591139000684
H   0.5106187138453 -1.48540884462625 2.68292157327828
H   -0.85389952919096 2.42104581966105 1.61530709677233
H   1.46104014931227 1.93754595890118 2.37528540560468
H   1.43226299634814 0.61335865234723 3.55539271194974
H   2.92034600852289 1.04165606590182 2.70191751871824
H   -0.78001979587386 3.5489438842647 -1.76311288024293
H   0.00634644677646 3.81808515793289 -0.19746021071997
H   0.7774251889172 2.8101508303294 -1.42219658458414
H   -0.07786484176786 -2.81447339418334 0.84579743815709
H   -1.91263671697616 0.44634182847852 2.33051305157733
H   1.73684014055177 -0.37134099773603 -1.78214261042874
H   -2.02548592260539 -1.08192608744557 -1.38788850880255
*
