! Engrad def2-TZVPPD wB97M-D3BJ 
%pal nprocs 8 end%pal nprocs 64 end 
%tddft 
 Iroot 2 Nroots 3 
sf true 
end 
*xyz 0 3 
O   0.64068333 0.39411322 -0.97048781
C   0.41338503 -0.48379421 0.02507554
C   0.23209986 0.29481974 1.26513226
H   1.15600392 -1.20557163 0.18251119
H   -0.49360958 -1.21722871 -0.19157441
H   0.719921 1.19041909 1.35172013
H   -0.5949631 -0.05512396 1.96021258
*
