! Engrad def2-TZVPPD wB97M-D3BJ 
%pal nprocs 8 end%pal nprocs 64 end 
%tddft 
 Iroot 1 Nroots 3 
sf true 
end 
*xyz 0 3 
O   3.08954736 -0.74771392 -2.04944768
O   -2.05324284 1.7001161 -1.57398324
O   -0.94664245 -2.74133255 -1.33821175
O   -3.1231076 0.87942058 2.68219832
N   -0.11500151 -1.50271932 0.28536394
N   -0.89784122 0.72766792 2.12504787
N   1.11881818 -1.81226795 -1.67479591
N   -2.49175604 0.86833945 0.5169036
C   2.17557816 -0.55712813 0.10448225
C   -0.19159167 1.35439234 -0.12288917
C   0.8314325 -0.66153911 0.86329403
C   0.21944532 0.81597799 1.17500088
C   3.43681563 -0.09825539 0.74189687
C   0.80248705 1.89074441 -1.09410905
C   2.18573115 -1.01143185 -1.30907368
C   -1.60518567 1.32802984 -0.50868528
C   -0.01845034 -2.07978909 -0.93873902
C   -2.25146108 0.83430929 1.81847292
H   1.11681589 -1.08002449 1.83139068
H   1.08231038 1.33212548 1.5754179
H   3.29109583 0.09582749 1.77618824
H   4.3174913 -0.62586428 0.56620925
H   3.64646963 0.92043303 0.22690904
H   0.39282419 2.61281066 -1.74064636
H   1.67367541 2.30718842 -0.63776622
H   1.18221891 1.13283761 -1.72655629
H   -0.9432745 -1.43796424 0.84982088
H   -0.68145941 0.73925021 3.12783482
H   1.17312402 -2.17281866 -2.63636482
H   -3.42942021 0.79660965 0.25067569
*
