! Engrad def2-TZVPPD wB97M-D3BJ 
%pal nprocs 8 end%pal nprocs 64 end 
%tddft 
 Iroot 1 Nroots 3 
sf true 
end 
*xyz 0 3 
O   3.09413367 -1.57932104 -1.89377477
O   -2.34909243 1.21354556 -1.55725262
O   -1.24702819 -2.31356638 -1.06428307
O   -2.65059418 0.88127178 2.87919616
N   0.13757252 -1.50026125 0.58515864
N   -0.56024396 1.14752956 1.97236407
N   0.86106298 -1.51304565 -1.6363292
N   -2.49944085 0.90874488 0.63008548
C   2.24240013 -0.56218736 0.07202531
C   -0.35345154 1.29959989 -0.32569976
C   1.02774748 -0.43319616 0.93632799
C   0.34652968 0.98384135 0.89378183
C   3.5358772 0.09252103 0.34112454
C   0.36721545 1.57551027 -1.58129769
C   2.1516749 -1.22846355 -1.20494682
C   -1.76990785 1.14454617 -0.51327118
C   -0.21555659 -1.76348968 -0.69264554
C   -1.93079428 1.02519394 1.89265067
H   1.33505836 -0.62784355 1.97264417
H   1.2147921 1.65833036 0.88941825
H   4.05325907 -0.25583274 1.28030465
H   4.25465828 -0.21331448 -0.42729554
H   3.54731103 1.19831557 0.26968371
H   0.10105503 2.47948319 -2.1225073
H   1.46967488 1.36970695 -1.61935177
H   0.03719543 0.88752978 -2.44431321
H   -0.70021057 -1.72754064 1.19480611
H   -0.25308549 0.91684765 2.91737483
H   0.78354538 -1.97768272 -2.53605923
H   -3.47326817 0.83019687 0.53765407
*
