! Engrad def2-TZVPPD wB97M-D3BJ 
%pal nprocs 8 end%pal nprocs 64 end 
 %tddft nroots 2 Iroot 2 
sf true 
end 
*xyz 0 3 
O   2.2774577403605 -0.2366160152301 -1.17353689001519
O   -0.19441858421555 2.76745158140955 -2.28308270753833
O   0.23536755058487 -3.77774528492779 0.73730616875995
O   -2.17528430558363 -1.09566489184096 -1.35924131716649
N   0.38655903076017 -1.87931084735779 1.97200210608084
N   -1.38697516430291 -0.15802646772767 0.53642375096644
N   1.06645035541362 -1.90692891445522 -0.25234117404985
N   -0.81114468167874 0.68567512141133 -1.61266954150757
C   1.3130372447637 0.19540777795893 0.94695773224393
C   -0.27418583404264 2.64102372576107 -0.10645841557321
C   0.58367732906281 -0.47203581958969 2.0648760500751
C   -0.36666642326836 0.44008057859509 1.30152492236596
C   2.24420216090096 1.33359550689763 1.22646335720945
C   -1.48613299948086 3.34310302437233 0.35580469121938
C   1.60240406198355 -0.63061805601326 -0.25356515837599
C   -0.44540380241512 1.99013800376743 -1.36953133364379
C   0.53043085221964 -2.60997259020108 0.82474035835569
C   -1.50334892758925 -0.2400005123808 -0.83326364055584
H   0.84827400629011 -0.15738134684484 3.06441792825527
H   -0.53734779136659 1.40485047561418 1.75123932611328
H   2.39534102165077 1.92880773886308 0.33433758166266
H   1.83985948143655 1.97801766475832 2.0031342934512
H   3.20449815680634 0.94057770511454 1.56116527952386
H   -2.41909778459201 2.77965736347576 0.26267473823776
H   -1.38525182585282 3.78490624484451 1.34304248992773
H   -1.55490600553931 4.16754905593503 -0.3680682058821
H   -0.02998398277618 -2.37947439052883 2.7362595452748
H   -1.87307439954493 -0.93080548863533 0.96562037672487
H   1.24028930898635 -2.46547906585668 -1.0731493607871
H   -0.87202578897105 0.47421812281123 -2.59848295135269
*
