! Engrad def2-TZVPPD wB97M-D3BJ 
%pal nprocs 8 end%pal nprocs 64 end 
%tddft Nroots 2 Iroot 2 
sf true 
end 
*xyz 0 3 
O   2.16009375 -0.04157599 -1.22570343
O   0.02024237 2.5854623 -1.95354784
O   0.58019392 -3.77875576 0.74387611
O   -1.9499522 -1.35234297 -1.52321764
N   0.93557438 -1.95522946 2.08616623
N   -1.39986857 -0.50880045 0.50449949
N   1.18407696 -1.79387995 -0.25853162
N   -0.88836332 0.61997611 -1.46916069
C   1.00900584 0.2749374 0.89234848
C   -1.19925553 2.61962461 -0.0222527
C   0.67386233 -0.57108876 2.10383276
C   -0.41134103 0.18730287 1.31746073
C   1.72380185 1.56333807 1.02709607
C   -1.20735404 3.97580844 0.29090778
C   1.50562199 -0.46707465 -0.32052897
C   -0.60203064 1.91640941 -1.15722836
C   0.89588852 -2.57811912 0.84508354
C   -1.50999235 -0.45585688 -0.84507105
H   0.92927676 0.06203244 2.92695078
H   -0.70274599 1.12897921 1.83406634
H   1.69908041 2.18563399 0.1282145
H   1.46916337 2.12432168 1.90209313
H   2.77839131 1.4054406 1.16866868
H   -1.87721714 4.24800255 1.11914327
H   -0.18441791 4.34541924 0.50662063
H   -1.55060331 4.61737346 -0.58187664
H   0.45337276 -2.53342047 2.78630053
H   -1.88942786 -1.23865019 0.89340517
H   1.58038023 -2.4024316 -0.98849171
H   -0.74426302 0.34771317 -2.48292998
*
