! EnGrad wB97M-D3BJ def2-TZVPPD 
%pal nprocs 8 end%pal nprocs 16 end 
%tddft 
 sf true 
 nroots 2 Iroot 2 end 
*xyz 0 3 
O   0.08559252020707 0.83890508886718 -0.00010440693869
C   0.69044643503004 -0.39300532750691 0.00014764172469
C   -0.72797224658777 -0.5231256405634 -0.00019786279241
H   1.23888657400154 -0.65314310471965 0.90398071491762
H   1.23856098440828 -0.65348322353475 -0.90384772057719
H   -1.26191119122766 -0.66752388921226 -0.92503425087497
H   -1.2614030758315 -0.6670239033302 0.92505588454095
*
