! Engrad wB97M-D3BJ def2-TZVPPD 
%pal nprocs 8 end%pal nprocs 16 end 
%tddft nroots 2 Iroot 1
 sf true 
end 
*xyz 0 3 
O   0.67843200005769 0.9979416587341 -0.00020129111237
C   0.76253753123645 -0.33805614366175 -0.00010035236799
C   -0.64783849020885 -0.59213739353425 0.00010821351339
H   1.26737367370552 -0.75430047133985 0.88354806057767
H   1.2671308292176 -0.75459987712288 -0.88375679480974
H   -1.20511130407995 -0.53715098776292 -0.92436370017504
H   -1.2047588112479 -0.53665947604082 0.92476586437408
*
