! Engrad def2-TZVPPD wB97M-D3BJ 
%pal nprocs 8 end%pal nprocs 64 end 
%tddft 
 Iroot 2 Nroots 3 
sf true 
end 
*xyz 0 3 
O   0.69922928 0.97065034 -0.55974344
C   0.88923704 -0.10493407 0.27535403
C   -0.44308265 -0.73087488 0.54937861
H   1.44506163 0.18491134 1.17233608
H   1.5379216 -0.81359951 -0.21764451
H   -0.84175898 -0.72836989 1.56764866
H   -0.97397614 -1.14248459 -0.32474811
*
