! Engrad wB97M-D3BJ def2-TZVPPD 
%pal nprocs 8 end%pal nprocs 16 end 
%tddft nroots 2 Iroot 2
 sf true 
end 
*xyz 0 3 
O   0.71282122617851 1.00204969961165 -0.00020197175
C   0.76567068521669 -0.33545183366487 -0.00010812364292
C   -0.64609334206611 -0.59451769508056 9.139777136e-05
H   1.26614251852451 -0.75993206366859 0.88269751469916
H   1.2659421805489 -0.76022664221675 -0.88290043837717
H   -1.20465100647431 -0.53610854526698 -0.92389105843177
H   -1.20421632505204 -0.5356451186337 0.92431267973135
*
