! Engrad def2-TZVPPD wB97M-D3BJ 
%pal nprocs 8 end%pal nprocs 64 end 
%tddft 
 Iroot 1 Nroots 3 
sf true 
end 
*xyz 0 3 
O   3.74791059 0.13249393 0.32369214
O   -0.84150032 0.84255815 -2.66165269
O   0.51834391 -2.48711485 -1.36935236
O   -3.50766411 -1.28910126 0.29835256
N   -0.00314804 -1.39494752 0.59942502
N   -2.21003069 0.39914849 1.0249276
N   2.03085847 -1.11846181 -0.47561491
N   -2.26403921 -0.14077051 -1.28851207
C   1.61910834 0.3706539 1.37041937
C   -0.54539923 1.32499531 -0.41757116
C   0.22495284 -0.23137368 1.42711121
C   -0.90788013 0.91604724 0.96010275
C   2.10888864 1.47527453 2.31872785
C   0.51626149 2.3394592 -0.67534065
C   2.54893383 -0.21652813 0.48375543
C   -1.20332065 0.67502693 -1.51207467
C   0.78217921 -1.67066708 -0.49229576
C   -2.75322789 -0.41762443 0.04675146
H   -0.23104881 -0.42380301 2.45545424
H   -0.72159452 1.7608956 1.71090661
H   3.07126804 1.33807141 2.70219571
H   2.04605464 2.40831979 1.75626123
H   1.33868831 1.58634896 3.15826873
H   1.49162041 1.82701022 -0.99960185
H   0.11486946 2.94099557 -1.42180755
H   0.83147412 2.83198827 0.22448852
H   -0.89060633 -1.91125211 0.68519328
H   -2.57039098 0.13747686 1.92869587
H   2.59221445 -1.28086847 -1.28398016
H   -2.40032042 -0.74839473 -2.04548678
*
