! Engrad def2-TZVPPD wB97M-D3BJ 
%pal nprocs 8 end%pal nprocs 64 end 
%tddft 
 Iroot 2 Nroots 3 
sf true 
end 
*xyz 0 3 
O   2.87236635 -0.308227 -1.89027775
O   -1.69506671 1.26216439 -2.04963571
O   -0.74924348 -2.83266599 -0.99059828
O   -3.20468687 -0.25596998 1.93721335
N   0.07351353 -1.55275108 0.78690091
N   -1.17184732 0.83761646 1.89948146
N   1.04096699 -1.50539511 -1.33284526
N   -2.33687449 0.38279882 -0.06645488
C   2.07657988 -0.21790571 0.37859775
C   -0.15830169 1.45202828 -0.22695618
C   0.91076309 -0.45439701 1.26754421
C   0.09119336 0.9597095 1.17320405
C   3.20611514 0.59984288 0.93908013
C   0.83888516 2.30467214 -0.93957011
C   2.08528587 -0.633295 -0.99436158
C   -1.40286659 1.06084083 -0.84809103
C   0.00214178 -2.03276364 -0.499594
C   -2.30808373 0.31249317 1.31644278
H   1.27863977 -0.60539543 2.28472409
H   0.68557946 1.63933214 1.73194175
H   3.46046261 0.29460756 1.9093237
H   4.18915832 0.53051352 0.31940312
H   3.06049984 1.67852217 0.92035009
H   0.33121141 2.78979576 -1.74997933
H   1.1632794 3.21263565 -0.35446394
H   1.60974949 1.73901045 -1.32207079
H   -0.7482357 -1.72687566 1.32835187
H   -1.19125705 0.91382931 2.92005852
H   1.15606376 -1.91257506 -2.26075925
H   -2.98761391 -0.26059345 -0.57128768
*
