! Engrad def2-TZVPPD wB97M-D3BJ 
%pal nprocs 8 end%pal nprocs 64 end 
%tddft Nroots 2 Iroot 2 
sf true 
end 
*xyz 0 3 
O   2.35145495 -0.44270264 -1.19216708
O   -0.24311088 3.0028494 -2.34739919
O   0.44701003 -3.99311921 0.75896717
O   -2.02025286 -1.08081973 -1.33259332
N   0.42150655 -1.99612532 1.9953994
N   -1.29518177 -0.06314274 0.51205596
N   1.15338495 -2.06932777 -0.22966818
N   -0.8768698 0.83978387 -1.69180222
C   1.34325027 0.06515809 0.9503777
C   -1.31193317 2.7304973 -0.27698713
C   0.66726888 -0.56323417 2.10421071
C   -0.15633052 0.37199593 1.25881074
C   2.23037453 1.37170537 1.02585614
C   -1.32270727 3.58001902 0.90675297
C   1.62346909 -0.77503175 -0.22272962
C   -0.81029594 2.27585815 -1.54306735
C   0.60675747 -2.77627876 0.87721969
C   -1.44362674 -0.1267725 -0.87238248
H   0.75176507 -0.16192096 3.06479448
H   -0.27129327 1.34846652 1.77194218
H   1.99301579 2.13338175 0.23577964
H   2.07169583 1.86562875 1.99298962
H   3.30397271 1.01128189 0.95707775
H   -2.00687695 3.29003792 1.6817948
H   -0.29926928 3.7113322 1.37342025
H   -1.54130656 4.61576091 0.54776676
H   0.33862202 -2.61947799 2.80961712
H   -2.02006303 -0.66411224 1.00327474
H   1.19788351 -2.6132648 -1.0899455
H   -0.74482502 0.51334423 -2.61987013
*
