! Engrad def2-TZVPPD wB97M-D3BJ 
%pal nprocs 8 end%pal nprocs 64 end 
%tddft Nroots 2 Iroot 1 
sf true 
end 
*xyz 0 3 
O   3.78652414 0.45550826 -0.02359798
O   -1.28122716 1.15164494 -2.4920233
O   0.95307144 -2.88065231 -1.20862876
O   -3.58193855 -1.23458479 0.56293595
N   0.26188466 -1.43724437 0.39184609
N   -2.00097885 0.20819474 1.33275598
N   2.35961087 -1.21406096 -0.5841518
N   -2.19912503 -0.24253525 -0.94513006
C   1.72158824 0.38137278 1.09839216
C   -0.74040435 1.49816778 -0.2080444
C   0.4273657 -0.32656915 1.29163484
C   -0.65006163 0.73793774 1.12758683
C   2.08767099 1.51300016 1.97100704
C   -0.61159448 2.96574164 -0.22223648
C   2.7087463 -0.09136905 0.1387586
C   -1.37991012 0.81266762 -1.3307273
C   1.1609447 -1.91506596 -0.51338035
C   -2.65854895 -0.48088659 0.34339899
H   0.35712242 -0.70149612 2.32936341
H   -0.48807291 1.47371673 1.90121716
H   3.16542083 1.60073584 2.02051137
H   1.7197515 2.46050955 1.58448679
H   1.67260986 1.39205992 2.96938981
H   -1.41284432 3.4095079 0.37870799
H   0.31592432 3.27951358 0.23416086
H   -0.68086159 3.34350637 -1.23512832
H   -0.54371232 -2.02863523 0.47558564
H   -2.3386576 -0.01125148 2.24992278
H   3.01159165 -1.53695468 -1.28963757
H   -2.70115669 -0.72004679 -1.68742634
*
