! Engrad def2-TZVPPD wB97M-D3BJ 
%pal nprocs 8 end%pal nprocs 64 end 
%tddft 
 Iroot 2 Nroots 3 
sf true 
end 
*xyz 0 3 
O   3.17620821 0.37024568 -0.85304296
O   -0.62183214 1.53996117 -2.27125412
O   0.41956461 -3.08715208 -0.34220464
O   -2.99912941 -1.76398768 -0.50111542
N   0.33096846 -1.46464316 1.23121032
N   -2.09522364 -0.14919462 0.94451649
N   1.51635546 -1.17015564 -0.72550713
N   -1.51351092 -0.29835684 -1.27810536
C   1.64356158 0.55668502 0.92382759
C   -0.85402932 1.61016264 0.03355096
C   0.45299138 -0.08185006 1.60032873
C   -0.96304972 0.71546916 1.21707435
C   2.42114426 1.61644688 1.62973349
C   -0.65180501 3.04898487 0.18063985
C   2.16926859 -0.00689753 -0.26801584
C   -0.96667313 0.98074043 -1.24948561
C   0.71349702 -1.95987593 0.00408998
C   -2.26792929 -0.83511519 -0.26621298
H   0.52252435 -0.00369518 2.68709628
H   -1.17057351 1.30764486 2.10630356
H   3.42402025 1.51403336 1.16337464
H   2.0591587 2.61596989 1.4571479
H   2.43687347 1.39782902 2.70249781
H   -1.48868591 3.46010902 0.76400287
H   0.20833565 3.23812239 0.7838582
H   -0.63262748 3.53252001 -0.78984825
H   -0.40676279 -2.0520085 1.63527602
H   -2.4410761 -0.71412452 1.71879424
H   1.85678365 -1.56559311 -1.57832434
H   -1.62592304 -0.71762494 -2.19612286
*
