! Engrad def2-TZVPPD wB97M-D3BJ 
%pal nprocs 8 end%pal nprocs 64 end 
%tddft 
 Iroot 1 Nroots 3 
sf true 
end 
*xyz 0 3 
O   0.18922918 0.348776 1.12329561
C   0.02323036 -0.30643322 -0.0221876
C   1.06318978 0.14411785 -0.98796851
H   -0.97767987 0.00901465 -0.36445359
H   -0.01474216 -1.3922923 0.23781502
H   1.68843494 -0.63608249 -1.45644237
H   1.3212304 1.20457993 -1.08140428
*
