! EnGrad wB97M-D3BJ def2-TZVPPD 
%pal nprocs 8 end%pal nprocs 16 end 
%tddft 
 sf true 
 nroots 2 Iroot 1 end 
*xyz 0 3 
O   0.36498480833836 1.02622863683677 -0.00261161821575
C   0.62444487766264 -0.28699862499848 -0.00051591666446
C   -0.7418161330548 -0.71882301115741 0.00070886230809
H   1.17886960085401 -0.63254759749621 0.88382511964484
H   1.17886016797336 -0.63533220895907 -0.88372388255255
H   -1.3022511988613 -0.73743330941944 -0.92327118824747
H   -1.30089212291228 -0.73349388480616 0.92558862372729
*
