! Engrad def2-TZVPPD wB97M-D3BJ 
%pal nprocs 8 end%pal nprocs 64 end 
 %tddft nroots 2 Iroot 1 
sf true 
end 
*xyz 0 3 
O   4.0797237711536 0.02098116105016 0.71696875643131
O   -1.82691111067472 1.1367261573637 -2.50697135453247
O   1.25776279290574 -2.77148972885504 -1.46481385757343
O   -3.7145865638974 -0.92463132394373 0.97496382240202
N   0.33761061702212 -1.1977040335347 -0.11127761299755
N   -1.91693961157711 0.41107647644394 1.39257611948947
N   2.63864858296519 -1.43654057922463 -0.25240247799522
N   -2.43663370062642 -0.22436189319187 -0.78101721399602
C   1.78131870974867 0.28117331114562 1.18860276330912
C   -0.84146795167021 1.51627286054077 -0.38795020639954
C   0.43071406580251 -0.31357717957701 1.02327739408613
C   -0.56596011161548 0.81810200240726 0.95073058553585
C   2.04465706802632 1.36426039536459 2.1543126225278
C   -0.67128026571495 2.97417436540972 -0.49885950552475
C   2.92903266023483 -0.34866666023129 0.55537736787467
C   -1.69618041628036 0.82566722221661 -1.34159521036167
C   1.38612160577161 -1.87521093206287 -0.6630469073632
C   -2.76220468355267 -0.29482884016057 0.57808132534892
H   0.22111596608425 -0.88560441177167 1.94928265498756
H   -0.2584121948115 1.58555322991269 1.65111922786011
H   1.80427064724355 2.35095046385536 1.73684811921443
H   1.44192756846477 1.25457944537078 3.05931714653858
H   3.09988577615917 1.37437451816808 2.40876274262673
H   -1.43377067641735 3.49496895111376 0.09785264521856
H   0.29806924061668 3.29816969911682 -0.11572256187997
H   -0.79436982576827 3.28865107138517 -1.53153076714386
H   -0.56045478939594 -1.58209433389266 -0.34712174228184
H   -2.12639643392716 0.3093833101726 2.37090929372325
H   3.41970965356361 -1.88003827179983 -0.70874211127948
H   -3.11240038983309 -0.6553164527918 -1.39333105784548
*
