! Engrad def2-TZVPPD wB97M-D3BJ 
%pal nprocs 8 end%pal nprocs 64 end 
%tddft Nroots 2 Iroot 1 
sf true 
end 
*xyz 0 3 
O   3.78744737 0.45761496 -0.02237061
O   -1.27850262 1.14804221 -2.49032791
O   0.95089926 -2.87912001 -1.20897865
O   -3.58634747 -1.23373681 0.56681813
N   0.2637622 -1.43659726 0.39071773
N   -2.0000007 0.20851334 1.33075572
N   2.36173763 -1.21688077 -0.58246543
N   -2.19863027 -0.24321452 -0.93908232
C   1.725918 0.37687082 1.09596478
C   -0.74498535 1.49450756 -0.19971317
C   0.43034068 -0.32750468 1.2898843
C   -0.66036545 0.74748348 1.11726061
C   2.08875666 1.51622276 1.96694962
C   -0.60928097 2.96612599 -0.22269773
C   2.71009876 -0.09275706 0.14038187
C   -1.37975573 0.81152406 -1.32892741
C   1.15995186 -1.91195393 -0.51475014
C   -2.65612547 -0.47943788 0.34298323
H   0.33848922 -0.69459694 2.32685851
H   -0.4848265 1.46579096 1.8990052
H   3.15967734 1.59196082 2.01437426
H   1.72579941 2.45488068 1.58006173
H   1.6784338 1.38708382 2.96178491
H   -1.41211246 3.40761471 0.38089541
H   0.31012375 3.27748714 0.22844851
H   -0.68159717 3.32802711 -1.24001127
H   -0.53369688 -2.03503141 0.45589618
H   -2.34244417 -0.0077736 2.25186326
H   2.99940868 -1.54061964 -1.29652101
H   -2.70063688 -0.71090089 -1.6902861
*
