! Engrad def2-TZVPPD wB97M-D3BJ 
%pal nprocs 8 end%pal nprocs 64 end 
%tddft 
 Iroot 2 Nroots 3 
sf true 
end 
*xyz 0 3 
O   2.55786703 -0.54220797 -2.31215499
O   -1.74652228 1.52811152 -1.64666642
O   -1.42983969 -2.32896775 -0.77611447
O   -2.91081424 0.56123268 2.55458607
N   0.01350673 -1.64237517 0.71306296
N   -0.66607804 0.81237373 2.01773993
N   0.65219198 -1.55544025 -1.58232317
N   -2.27729169 0.69772236 0.35657518
C   2.09418723 -0.59453947 -0.01861224
C   0.01329539 1.20991206 -0.162366
C   1.08882765 -0.76278153 1.0369731
C   0.44349685 0.66720518 1.11961058
C   3.4315901 -0.02212301 0.33172238
C   1.01623255 1.96833328 -0.99961987
C   1.82923679 -0.87110126 -1.37979402
C   -1.37862797 1.17031206 -0.57301725
C   -0.39297068 -1.87717535 -0.61403238
C   -2.02032249 0.6994163 1.70224965
H   1.41399889 -0.97063582 2.091915
H   1.22488443 1.31810722 1.38060389
H   3.96127874 0.20061952 -0.59825966
H   3.35597117 1.09238719 0.63415845
H   3.8037708 -0.75673632 1.03317815
H   0.53152211 2.97274974 -1.09450993
H   2.0924688 2.03709122 -0.67838075
H   1.01624717 1.5774964 -2.04683197
H   -0.82616688 -1.54872199 1.22901488
H   -0.5424444 0.68995925 2.99646506
H   0.35024246 -1.53186255 -2.55800366
H   -3.2538562 0.56335277 0.1206865
*
