! Engrad def2-TZVPPD wB97M-D3BJ 
%pal nprocs 8 end%pal nprocs 64 end 
%tddft 
 Iroot 2 Nroots 3 
sf true 
end 
*xyz 0 3 
O   3.14072 -0.80772915 -1.90774011
O   -1.96634238 1.64521729 -1.57553719
O   -0.9438676 -2.79620496 -1.47595942
O   -3.08847079 0.91880024 2.68588325
N   -0.18984288 -1.5024841 0.24371253
N   -0.85757351 0.74202663 2.0878753
N   1.1104264 -1.80212229 -1.69241711
N   -2.51424093 0.92079885 0.50762672
C   2.08324243 -0.6226568 0.15007704
C   -0.15113109 1.44007388 -0.0873201
C   0.79196559 -0.67632141 0.94172712
C   0.21450039 0.74158375 1.10911821
C   3.25970753 0.01829235 0.68392988
C   0.86213814 1.91157596 -1.10776795
C   2.21912395 -1.13531747 -1.23481992
C   -1.56323742 1.3611604 -0.44181158
C   -0.07419124 -2.06570638 -0.99907372
C   -2.22105721 0.87484012 1.83423979
H   1.05466783 -0.98844753 1.97231604
H   1.07862492 1.2187558 1.55290452
H   3.2181331 0.39779837 1.71045849
H   4.05655164 -0.68447022 0.63890419
H   3.67975935 0.79728884 -0.04132903
H   0.55400615 2.66566155 -1.71063089
H   1.73273711 2.32101335 -0.55550311
H   1.28884319 1.11669585 -1.70382492
H   -1.03133647 -1.53026067 0.80698824
H   -0.55819729 0.94473854 3.02198699
H   1.33983429 -2.24426616 -2.56227352
H   -3.47103111 1.21968144 0.29648837
*
