! Engrad def2-TZVPPD wB97M-D3BJ 
%pal nprocs 8 end%pal nprocs 64 end 
%tddft 
 Iroot 1 Nroots 3 
sf true 
end 
*xyz 0 3 
O   3.31173789 1.04302699 -0.10336372
O   -1.06695712 0.75120449 -2.57577922
O   0.67261717 -2.60138246 -1.32436499
O   -3.33438836 -1.66143887 0.51469616
N   0.30197154 -1.4716229 0.65591582
N   -2.15152357 0.210981 1.10845284
N   1.95305196 -0.72514519 -0.78280159
N   -2.01054134 -0.59841334 -1.00979839
C   1.5788228 0.49007223 1.30647431
C   -0.63218179 1.32359261 -0.35079263
C   0.25162945 -0.27618062 1.44483501
C   -0.81068792 0.77084376 1.05093128
C   2.04618894 1.47612808 2.32679483
C   0.26548671 2.42955129 -0.67536478
C   2.36154947 0.29147243 0.0951633
C   -1.28714221 0.5430503 -1.38695429
C   1.0002164 -1.72952524 -0.53706718
C   -2.56948108 -0.80878447 0.24011529
H   0.02718046 -0.44718461 2.50783756
H   -0.68989898 1.51263768 1.75657951
H   1.19028796 2.01153646 2.74126989
H   2.72711341 1.00770973 3.1085155
H   2.69388909 2.1410923 1.75578317
H   -0.25200901 3.12216706 -1.3436364
H   0.71446956 2.815127 0.2416952
H   1.2228751 2.31397776 -1.29768747
H   -0.37545423 -2.2033629 0.79571211
H   -2.57691669 0.15422734 1.98765424
H   2.11858171 -0.57006045 -1.74138411
H   -2.2233415 -1.21261157 -1.78607637
*
