! Engrad def2-TZVPPD wB97M-D3BJ 
%pal nprocs 8 end%pal nprocs 32 end 
%tddft Nroots 2 Iroot 2 
sf true 
end 
*xyz 0 3 
O   0.70713198 1.35728732 0.07306435
C   0.5550993 0.18586305 -0.25364947
C   -0.45068502 -0.80885567 0.22552738
H   0.07711289 -1.65917619 0.64250903
H   1.23435616 -0.23025271 -1.01266345
H   -1.0325126 -1.17288865 -0.64324899
H   -1.13165147 -0.39654596 0.95272897
*
