! Engrad wB97M-D3BJ def2-TZVPPD 
%pal nprocs 8 end%pal nprocs 16 end 
%tddft nroots 2 Iroot 1
 sf true 
end 
*xyz 0 3 
O   0.15883013881521 0.85288595636108 -0.00010103575983
C   0.72415586006327 -0.3974672670823 3.151815362e-05
C   -0.69744200323837 -0.48396327459495 -5.835087716e-05
H   1.26401744467666 -0.67483984370286 0.90395818013518
H   1.26402819190212 -0.67488351214863 -0.90388219705368
H   -1.23553191863875 -0.61102380200577 -0.92503285327493
H   -1.23537557529214 -0.61048256582487 0.9250847386768
*
