! Engrad def2-TZVPPD wB97M-D3BJ 
%pal nprocs 8 end%pal nprocs 64 end 
%tddft 
 Iroot 1 Nroots 3 
sf true 
end 
*xyz 0 3 
O   3.5559827 -0.25346192 -0.73361739
O   -1.41677162 0.96623222 -2.62933128
O   -0.16098787 -3.00542019 -0.53545253
O   -3.53259973 -0.64719287 1.00340972
N   -0.01144468 -1.26476919 0.92627811
N   -1.82774889 0.82418546 1.29289368
N   1.70364274 -1.65606813 -0.5748768
N   -2.23793309 -0.05192015 -0.81671775
C   1.9050782 0.2209765 0.91813945
C   -0.39926787 1.49326244 -0.56142063
C   0.54236006 0.01898971 1.3850668
C   -0.43685981 1.27912348 0.92557619
C   2.81593257 1.13067849 1.61040852
C   0.5144835 2.37905004 -1.25935847
C   2.50158107 -0.56900038 -0.18181274
C   -1.30956561 0.77936902 -1.44687619
C   0.45084629 -2.03013003 -0.07535449
C   -2.57472174 -0.05373964 0.5485238
H   0.42433348 0.04006471 2.45778945
H   -0.08998427 2.14654742 1.48696947
H   3.62114237 1.41853913 1.0086122
H   2.21881144 2.02862551 1.90802507
H   3.1377902 0.74842594 2.63446322
H   -0.05388838 2.94747148 -1.97378389
H   0.89253224 3.01188686 -0.50920363
H   1.28636185 1.89430348 -1.79262022
H   -0.751116 -1.73272008 1.47557648
H   -2.01153904 0.79466961 2.28484782
H   1.91963046 -2.20510459 -1.41924592
H   -2.64862603 -0.78422204 -1.3400966
*
