! Engrad def2-TZVPPD wB97M-D3BJ 
%pal nprocs 8 end%pal nprocs 64 end 
 %tddft nroots 2 Iroot 2 
sf true 
end 
*xyz 0 3 
O   2.61400887492657 1.14760183702601 -0.52288945132194
O   -0.5787273055772 0.8719765981754 -2.27905425627099
O   0.66979983180006 -2.84472595952532 -1.48515481442183
O   -2.57116710157403 -1.63205891247911 0.94817092045489
N   0.57781828297181 -2.07331136482386 0.65553612248972
N   -1.99395616991586 0.51735740147548 1.42543384489986
N   1.7107571878654 -0.8834465929352 -0.95850999641316
N   -1.63013848411735 -0.33397649588858 -0.67760153123174
C   1.37216802296585 0.10744106932192 1.20926072028414
C   -0.79978597119323 1.86583294527702 -0.13263120575615
C   0.74413498991857 -1.02938238519676 1.53579984080912
C   -1.35184688541584 1.68150701876206 1.07080500470799
C   1.63244412369122 1.22018566376677 2.17203293313836
C   -0.08648661616919 3.11406685113493 -0.54097700744724
C   1.96031579019895 0.20545624296117 -0.12726933831182
C   -0.9696229552942 0.81225383256195 -1.13538861994871
C   0.96331178617357 -2.00366535940552 -0.66597710561035
C   -2.10754494620541 -0.56956012868265 0.58897876452679
H   0.32199819711226 -1.19217127208408 2.51583131479455
H   -1.3020906034587 2.43096189175676 1.84571396223961
H   1.36371710925316 2.17832785132906 1.73426724579881
H   1.06891033757097 1.07615864900375 3.09181407468095
H   2.6914315556351 1.27404745484942 2.41928764553543
H   -0.55682582750588 3.54991142686566 -1.42007179130007
H   -0.10007573636468 3.84543971631292 0.26436392281441
H   0.9465668617364 2.89270235739166 -0.80040989193555
H   -0.06372014389288 -2.81643109182533 0.87432326776099
H   -2.36150637700536 0.38853135371734 2.35040270027143
H   1.99086304350135 -0.7843464946481 -1.92202707596784
H   -1.70215087163145 -1.10168410419482 -1.32946019926963
*
