! EnGrad wB97M-D3BJ def2-TZVPPD 
%pal nprocs 8 end%pal nprocs 16 end 
%tddft 
 sf true 
 nroots 2 Iroot 1 end 
*xyz 0 3 
O   0.70937556126862 1.33586693361277 0.07761229206744
C   0.5594648836356 0.19183318278981 -0.25358833563444
C   -0.45032624699331 -0.8050166186138 0.22470167138627
H   0.07944063579793 -1.66643799364054 0.63205408533424
H   1.24287240660773 -0.23088525422898 -1.02008677084289
H   -1.02206484490995 -1.15862892698659 -0.63371173835275
H   -1.11656239540662 -0.38513132293267 0.97301879604213
*
