! Engrad def2-TZVPPD wB97M-D3BJ 
%pal nprocs 8 end%pal nprocs 32 end 
%tddft Nroots 2 Iroot 2 
sf true 
end 
*xyz 0 3 
O   0.51644379 1.25123578 -0.0253306
C   0.42816198 -0.26269282 -0.01174138
C   -0.87758918 -1.09574214 0.03936058
H   1.02427845 -0.64617022 0.80801711
H   0.99126536 -0.57014137 -0.89593979
H   -1.50034641 -1.07830934 -0.86265377
H   -1.42040026 -1.12832916 0.99238593
*
