! Engrad def2-TZVPPD wB97M-D3BJ 
%pal nprocs 8 end%pal nprocs 64 end 
%tddft 
 Iroot 1 Nroots 3 
sf true 
end 
*xyz 0 3 
O   2.62554483 -0.53997615 -2.28627567
O   -2.16204429 1.03419486 -1.67641679
O   -0.97880532 -2.80546504 -0.83702082
O   -2.52472803 0.39675561 2.90221594
N   0.14290011 -1.52074229 0.66204589
N   -0.66123724 1.21871292 2.01097682
N   0.77124638 -1.53150044 -1.55926145
N   -2.334746 0.52363256 0.58093204
C   2.0954924 -0.39195788 0.01134963
C   -0.24570136 1.31478591 -0.3785701
C   0.99529846 -0.45330822 1.00992235
C   0.30622308 0.98355482 0.98625279
C   3.34822178 0.36139689 0.18996143
C   0.57458028 1.97235405 -1.37816307
C   1.85858989 -0.83013367 -1.35432165
C   -1.64226817 0.9515258 -0.5302476
C   -0.10182077 -1.99553979 -0.55927688
C   -1.91343895 0.66952887 1.92875706
H   1.40312481 -0.67088698 2.04735427
H   1.17690772 1.59010083 1.28093693
H   4.05444112 -0.04430497 -0.57846259
H   3.3798651 1.38258063 -0.01945948
H   3.72774485 0.31864535 1.25525422
H   -0.01474868 2.12177582 -2.27804418
H   0.97040624 2.93276219 -0.99926146
H   1.41245043 1.30733412 -1.72138799
H   -0.53565158 -1.90263322 1.28854383
H   -0.29444892 1.14764201 2.95097361
H   0.51089875 -1.79069089 -2.51664281
H   -3.25155729 0.15587103 0.54927951
*
