! Engrad def2-TZVPPD wB97M-D3BJ 
%pal nprocs 8 end%pal nprocs 32 end 
%tddft Nroots 2 Iroot 1 
sf true 
end 
*xyz 0 3 
O   0.64842543 1.15586883 0.12056197
C   0.55120613 -0.27837717 0.03855996
C   -0.85085762 -0.70748552 0.12117215
H   1.21187315 -0.84764779 0.76828148
H   1.11761975 -0.82102833 -0.79268465
H   -1.20412733 -1.5829395 0.63759835
H   -1.58830968 0.10503151 0.16132043
*
