! Engrad def2-TZVPPD wB97M-D3BJ 
%pal nprocs 8 end%pal nprocs 64 end 
%tddft 
 Iroot 1 Nroots 3 
sf true 
end 
*xyz 0 3 
O   1.2212481 0.88278818 0.33870391
C   0.16334523 -0.03615694 0.53031867
C   -0.23535102 -0.70487585 -0.70213642
H   -0.60101351 0.59417089 1.12941488
H   0.44037697 -0.88712982 1.17003644
H   -1.13821167 -0.61694344 -1.17710759
H   0.49020625 -1.3337543 -1.27076591
*
