! Engrad def2-TZVPPD wB97M-D3BJ 
%pal nprocs 8 end%pal nprocs 64 end 
%tddft 
 Iroot 2 Nroots 3 
sf true 
end 
*xyz 0 3 
O   3.43937108 -0.25913914 -0.20177931
O   -0.6320379 0.871763 -2.77896617
O   -0.09917842 -2.94274844 -0.53493499
O   -3.78427726 -0.30953763 0.14371708
N   -0.1791826 -1.36891773 1.1533086
N   -2.01456546 0.89581504 0.90753599
N   1.47014872 -1.31021009 -0.51199736
N   -1.95373867 -0.06001295 -1.20079894
C   1.66100866 0.09160689 1.3753205
C   -0.15498982 1.26592638 -0.56381047
C   0.20586135 -0.02227679 1.61547233
C   -0.59069064 1.09294724 0.84513434
C   2.42729711 1.14538438 2.07590851
C   1.11731474 2.00748475 -0.99891207
C   2.30483984 -0.54233459 0.24498105
C   -0.9092138 0.70200326 -1.62013187
C   0.40937016 -1.99150917 0.04158174
C   -2.7061161 0.14905477 -0.03208195
H   -0.04391771 0.03353196 2.67262242
H   -0.43635406 2.01910404 1.35714813
H   3.36570887 1.34769797 1.56537393
H   1.86685402 2.15124352 2.07355241
H   2.64177391 1.00586856 3.13152103
H   1.87473687 1.29667435 -1.39758366
H   0.88704411 2.69704706 -1.7591719
H   1.57939074 2.59407213 -0.16107933
H   -1.16603954 -1.64283011 1.18578861
H   -2.48685303 1.05125566 1.79781768
H   1.81994323 -1.82051255 -1.283536
H   -2.47307313 -0.5279061 -1.94411842
*
