! Engrad def2-TZVPPD wB97M-D3BJ 
%pal nprocs 8 end%pal nprocs 32 end 
%tddft Nroots 2 Iroot 1 
sf true 
end 
*xyz 0 3 
O   0.81327338 1.38951878 -0.00041788
C   0.52211397 0.22269398 0.21592016
C   -0.46015738 -0.80236879 -0.23992649
H   1.17847554 -0.25877339 0.96298809
H   0.11253427 -1.6560018 -0.61861709
H   -1.17785539 -0.47652898 -0.99369917
H   -0.99229294 -1.15539026 0.65458613
*
