! Engrad def2-TZVPPD wB97M-D3BJ 
%pal nprocs 8 end%pal nprocs 32 end 
 %tddft nroots 2 Iroot 2 
sf true 
end 
*xyz 0 3 
O   3.78617461064145 0.45443836991413 -0.02369709602385
O   -1.28082707603603 1.15313409827584 -2.49197066288727
O   0.95458427644696 -2.88291742582559 -1.20840329450006
O   -3.58177028751648 -1.23467497969299 0.55954511673143
N   0.26260956879924 -1.43962506513318 0.39241040868706
N   -1.99985582810407 0.20743659504474 1.33368872914499
N   2.35928403199248 -1.21345557893194 -0.5852669394997
N   -2.19882816059947 -0.2426991045381 -0.94799713994256
C   1.71756336144475 0.38329334272223 1.09918145430072
C   -0.73913877294634 1.49953427274254 -0.21178031395259
C   0.42363291642844 -0.32621549150686 1.29290379339876
C   -0.6469021092535 0.73566029160591 1.12915876948822
C   2.08632782431611 1.51090212883463 1.97373228804931
C   -0.6138185084894 2.96399572326075 -0.2219104193295
C   2.70940599145168 -0.09008606653902 0.1390349805658
C   -1.3805669617883 0.81441067695997 -1.3319278989045
C   1.16409254522917 -1.91509283023291 -0.51287961127615
C   -2.65944670053434 -0.48153455893747 0.34374228418398
H   0.36690500651138 -0.69657791223717 2.33029277783056
H   -0.48394118875657 1.48052762468449 1.90531342004039
H   3.16743868735585 1.60618391224534 2.01876155173052
H   1.70813582856736 2.4665687891663 1.58251965389746
H   1.67028588570296 1.39444331903701 2.97547235626004
H   -1.41259520873783 3.42200947643662 0.37566966795025
H   0.32613032966524 3.28397241981207 0.24171046948377
H   -0.67772319709778 3.3479095521084 -1.23535425522292
H   -0.55378686604725 -2.01792521742305 0.48296973682294
H   -2.33705608691464 -0.00869883567627 2.25651751673687
H   3.0147159825101 -1.53732453087662 -1.27721739075544
H   -2.69842989424119 -0.72259299529989 -1.67961995300859
*
