! Opt wB97M-D3BJ def2-TZVPPD 
%pal nprocs 8 end %pal nprocs 64 end 
%geom
Constraints
    {A 2 1 0 130.16949152542372 C }
end
MaxIter 200
end 
*xyz 0 1 
O   1.6747425916099745 0.6895300114172817 0.0
C   0.7509 -0.4065 0.0
C   -0.7502 -0.4076 0.0
H   1.2625 -0.6786 0.9136
H   1.2625 -0.6787 -0.9136
H   -1.2614 -0.6806 -0.9136
H   -1.2614 -0.6805 0.9136
*
