! Engrad def2-TZVPPD wB97M-D3BJ 
%pal nprocs 8 end%pal nprocs 32 end 
%tddft Nroots 2 Iroot 1 
sf true 
end 
*xyz 0 3 
O   -0.0958738 0.81258604 0.00547136
C   0.7832616 -0.55433774 -0.00686899
C   -0.73269882 -0.41232101 0.00179669
H   1.32356388 -0.61643441 0.92915559
H   1.3322548 -0.61032461 -0.95646864
H   -1.27872166 -0.61834054 -0.93675323
H   -1.2918496 -0.62111751 0.92307181
*
