! Engrad def2-TZVPPD wB97M-D3BJ 
%pal nprocs 8 end%pal nprocs 32 end 
%tddft Nroots 2 Iroot 1 
sf true 
end 
*xyz 0 3 
O   0.57805865 1.19318274 0.22862811
C   0.57931584 -0.25139546 0.00741572
C   -0.79704413 -0.77481486 0.08157733
H   1.26833582 -0.81712455 0.68253067
H   1.03003908 -0.54663576 -0.94460319
H   -1.12054799 -1.54764823 -0.60484737
H   -1.46483744 -0.35102776 0.79244775
*
