! Engrad def2-TZVPPD wB97M-D3BJ 
%pal nprocs 8 end%pal nprocs 64 end 
 %tddft nroots 2 Iroot 1 
sf true 
end 
*xyz 0 3 
O   2.84083872887099 1.07071579174956 -0.71522915912819
O   -0.4068597039767 0.83040278061727 -2.04618533477148
O   0.57945829449822 -2.78825214730936 -1.48420684367438
O   -2.63333985649044 -1.73406487961975 0.96661154022059
N   0.70466372984281 -2.0120680875698 0.65134721225973
N   -2.44397164597719 0.502766530839 1.3554434014196
N   1.84138223179476 -0.93884071358628 -1.04234026404518
N   -1.61461852924891 -0.40840523970412 -0.58644283589803
C   1.71612503244472 0.09447486975004 1.12830911160577
C   -1.07008878848743 1.87424951160131 -0.02034867150453
C   1.00588709940569 -0.97632916885396 1.50508607446548
C   -1.84985877103661 1.71156265541458 1.05239526601017
C   2.04851949717052 1.23380873233567 2.03643722631835
C   -0.3559131964881 3.14150942368467 -0.36472420254882
C   2.19522152313594 0.15524109109805 -0.2537175753686
C   -0.98026991144541 0.77125203333609 -0.98146519143076
C   1.01249146255204 -1.97987104997363 -0.69191864823948
C   -2.26070833416095 -0.63730788160918 0.60578588680479
H   0.62190148274894 -1.08649266641556 2.50830497720748
H   -2.01800799479694 2.49990241702436 1.77024728747277
H   1.62728876278305 2.16244268047102 1.65507838827156
H   1.65999327731778 1.05713042281386 3.03690515555774
H   3.12546694045728 1.37728941425938 2.09655912615107
H   -0.7247145063136 3.54825101421211 -1.30436419279792
H   -0.4839354188272 3.88534408077628 0.41835431356807
H   0.7070288198227 2.94826796644923 -0.50254820986993
H   0.02258819814791 -2.70330299827038 0.91494519328161
H   -2.94050627650514 0.37404626192437 2.21821538726874
H   2.0267603303151 -0.84922197405343 -2.02949912575054
H   -1.50022247755388 -1.2095008713914 -1.1924352928557
*
