! Engrad def2-TZVPPD wB97M-D3BJ 
%pal nprocs 8 end%pal nprocs 64 end 
%tddft 
 Iroot 1 Nroots 3 
sf true 
end 
*xyz 0 3 
O   -0.32174439 -0.35457453 0.91081839
C   0.31208789 0.54130923 0.08939971
C   1.32934162 -0.00491078 -0.84448413
H   0.9004873 1.361961 0.64257879
H   -0.4035382 1.22477828 -0.44732928
H   1.51730421 -1.10912732 -0.76092778
H   1.56955934 0.47252423 -1.76346721
*
