! Engrad def2-TZVPPD wB97M-D3BJ 
%pal nprocs 8 end%pal nprocs 32 end 
%tddft Nroots 2 Iroot 1 
sf true 
end 
*xyz 0 3 
O   0.204813 0.94886467 0.00196572
C   0.65463209 -0.37161049 -0.00651952
C   -0.75501081 -0.6593139 0.00178521
H   1.23883217 -0.58932807 0.89661579
H   1.24358222 -0.60669602 -0.89948691
H   -1.28433835 -0.66975739 -0.90939728
H   -1.28755126 -0.65670409 0.93938878
*
