! EnGrad wB97M-D3BJ def2-TZVPPD 
%pal nprocs 8 end%pal nprocs 16 end 
%tddft 
 sf true 
 nroots 2 Iroot 1 end 
*xyz 0 3 
O   0.68363815850216 1.33874315644878 0.07315046682259
C   0.56106469900757 0.19059575333991 -0.25600293455932
C   -0.446676006814 -0.8077501705171 0.22451350821349
H   0.07922771551842 -1.68081063861775 0.61173761296485
H   1.25871549134318 -0.22583401605307 -1.0120614790727
H   -1.03685617761264 -1.14372042801718 -0.62885102514054
H   -1.0969138799447 -0.38962365658359 0.98751385077163
*
