! Engrad def2-TZVPPD wB97M-D3BJ 
%pal nprocs 8 end%pal nprocs 64 end 
%tddft Nroots 2 Iroot 1 
sf true 
end 
*xyz 0 3 
O   2.94063903 1.25966878 -0.48770123
O   -0.52985717 0.42496032 -1.88040462
O   1.40267064 -2.83733071 -1.76901223
O   -3.13221888 -1.36995945 1.36597094
N   0.74050304 -1.99413649 0.23358534
N   -2.33282148 0.74315132 1.65902081
N   2.19902 -0.81527097 -1.08706819
N   -1.9332019 -0.39086201 -0.30293383
C   1.46361317 0.1794631 0.98076256
C   -0.90519335 1.76983398 0.04740073
C   0.74029967 -1.02820029 1.18654451
C   -1.58062289 1.80584701 1.1985909
C   1.55416015 1.21086418 2.03238617
C   -0.09763732 2.90909281 -0.48760287
C   2.23776052 0.28020038 -0.21322806
C   -1.06801709 0.59171127 -0.80783221
C   1.44856225 -1.9464222 -0.95505954
C   -2.51814508 -0.42653871 0.9423109
H   0.17491892 -1.21415735 2.06624256
H   -1.54020382 2.65780918 1.84945186
H   1.37355479 2.18809637 1.60998707
H   0.87534931 1.01023406 2.85228632
H   2.58930311 1.2343847 2.40605939
H   -0.49069478 3.22373735 -1.45083059
H   -0.10088946 3.75019636 0.19470838
H   0.94373857 2.63571705 -0.65253983
H   0.19548302 -2.84731224 0.37336941
H   -2.78500948 0.76639495 2.54992446
H   2.67225797 -0.68271682 -1.96300738
H   -2.05058519 -1.21674474 -0.87918651
*
