! Engrad def2-TZVPPD wB97M-D3BJ 
%pal nprocs 8 end%pal nprocs 64 end 
%tddft Nroots 2 Iroot 2 
sf true 
end 
*xyz 0 3 
O   2.93284153 1.25105916 -0.49984185
O   -0.54062069 0.42650653 -1.84540698
O   1.42165006 -2.83639995 -1.81453705
O   -3.08823256 -1.35924619 1.44664127
N   0.79013 -2.03150271 0.23025433
N   -2.37051663 0.78697844 1.66377516
N   2.21092789 -0.81157061 -1.10928954
N   -1.9191605 -0.38520715 -0.25821065
C   1.53796922 0.12249322 0.99674773
C   -0.98843754 1.81387361 0.01748399
C   0.81391208 -1.08325498 1.18872635
C   -1.65634174 1.85446915 1.17784574
C   1.60760353 1.15993448 2.04741799
C   -0.17774345 2.95710612 -0.51844042
C   2.26463999 0.26217533 -0.22640102
C   -1.09721314 0.60039521 -0.79048781
C   1.4707074 -1.95898967 -0.98025555
C   -2.51690088 -0.40252756 0.98597106
H   0.26861491 -1.24632115 2.10584698
H   -1.6459929 2.72830274 1.80801436
H   1.34074691 2.13515887 1.62083912
H   0.95412044 0.95402265 2.88529105
H   2.63054793 1.26559185 2.39815815
H   -0.54448093 3.24925123 -1.49647872
H   -0.21926598 3.82143881 0.15262438
H   0.85997958 2.66588551 -0.64559865
H   0.23893755 -2.86625376 0.37410602
H   -2.84425409 0.81716129 2.54420329
H   2.68856866 -0.70124251 -1.97993755
H   -1.99191243 -1.24002244 -0.78339179
*
