! Engrad def2-TZVPPD wB97M-D3BJ 
%pal nprocs 8 end%pal nprocs 64 end 
%tddft 
 Iroot 2 Nroots 3 
sf true 
end 
*xyz 0 3 
O   1.21929177 0.88011602 0.34379
C   0.17166518 -0.0299983 0.544875
C   -0.22093898 -0.70231766 -0.70745289
H   -0.64842388 0.5123177 1.0898823
H   0.36666953 -0.88804355 1.10704031
H   -1.13730108 -0.62951601 -1.24248001
H   0.4172134 -1.30051619 -1.29889855
*
