! Engrad wB97M-D3BJ def2-TZVPPD 
%pal nprocs 8 end%pal nprocs 16 end 
%tddft nroots 2 Iroot 1
 sf true 
end 
*xyz 0 3 
O   1.34054419502895 1.06321883059986 -0.08648488597271
C   0.92808821866759 -0.0058533313603 0.2749704110184
C   -0.31540488378199 -0.67604617661503 -0.22624010018168
H   1.48524257448792 -0.57764389004882 1.04307848528924
H   -0.05374469869994 -1.64774297045003 -0.646355671289
H   -0.8130578775133 -0.06542562493681 -0.97343682411881
H   -0.9844181064463 -0.86326115921344 0.61446858525456
*
