! EnGrad wB97M-D3BJ def2-TZVPPD 
%pal nprocs 8 end%pal nprocs 16 end 
%tddft 
 sf true 
 nroots 2 Iroot 1 end 
*xyz 0 3 
O   0.66960683800774 1.36763020816667 0.05709233107971
C   0.54091637689265 0.21248275919353 -0.24103787540409
C   -0.44423197509983 -0.81560059811717 0.22159346934173
H   0.11020880206645 -1.65132975506826 0.64883871634289
H   1.25077888565113 -0.21287605264984 -0.98382463972446
H   -0.97520419554337 -1.19612913840188 -0.65117807619885
H   -1.14987473197477 -0.42257742312306 0.94851607456307
*
