! Engrad def2-TZVPPD wB97M-D3BJ 
%pal nprocs 8 end%pal nprocs 64 end 
 %tddft nroots 2 Iroot 1 
sf true 
end 
*xyz 0 3 
O   2.95814484262422 0.38236512740524 -1.13511271682549
O   -0.46571168562772 1.6720092296854 -2.1934008528666
O   0.42474828231353 -3.17398684312013 -0.09278903556951
O   -2.97189875409875 -1.73408409249114 -0.65768108694038
N   0.39254900343648 -1.43372804189828 1.36399876364689
N   -2.1617629974237 -0.26291831360636 0.874696887055
N   1.41854010104319 -1.2332548631482 -0.72671025752665
N   -1.44325978854601 -0.18517855314194 -1.32915233974102
C   1.65900885067017 0.58801076207979 0.8173106450875
C   -0.76435120272118 1.57944656797647 0.15823475395333
C   0.37120305660366 -0.018914885552 1.59191638296798
C   -1.14490787730552 0.66051503924813 1.26200621721472
C   2.4730107750918 1.62264237443324 1.47078973345062
C   -0.61899516144093 3.02903840670044 0.37400254953184
C   2.07906403709194 -0.0485847600722 -0.41334104155381
C   -0.85377425118721 1.06928164779505 -1.21524743288698
C   0.71213829789026 -2.02807232318306 0.16243985676053
C   -2.24847505444253 -0.80977289562149 -0.37946355992287
H   0.54314285423234 0.14944024221273 2.65620153646068
H   -1.46473418955505 1.20647047874866 2.14438949043971
H   3.35617334499454 1.84098230011745 0.87854055814167
H   1.90942817986932 2.55253399269336 1.609963120138
H   2.77089122899148 1.29660731805549 2.47256086321472
H   -1.59649432452128 3.46825525762833 0.6032410020224
H   0.01997901606448 3.24179010817166 1.23513515651931
H   -0.21627954947751 3.50780152286928 -0.51258734781783
H   -0.1662298183686 -2.0368896694046 1.94330602415425
H   -2.70975469237372 -0.7350363907963 1.57076066302127
H   1.72177428368273 -1.70037251938565 -1.56562936199054
H   -1.53056680751042 -0.55139622439943 -2.26377917013875
*
