! SP wB97M-D3BJ def2-TZVPPD 
%pal nprocs 8 end 
*xyz 0 1 
O   0.0 0.0 0.0
*
