! Opt wB97M-D3BJ def2-TZVPPD 
%pal nprocs 8 end %pal nprocs 64 end 
%geom
Constraints
    {A 2 1 0 99.66101694915254 C }
end
MaxIter 200
end 
*xyz 0 1 
O   0.9904234024254625 1.0067924183234447 0.0
C   0.7509 -0.4065 0.0
C   -0.7502 -0.4076 0.0
H   1.2625 -0.6786 0.9136
H   1.2625 -0.6787 -0.9136
H   -1.2614 -0.6806 -0.9136
H   -1.2614 -0.6805 0.9136
*
