! Engrad def2-TZVPPD wB97M-D3BJ 
%pal nprocs 8 end%pal nprocs 64 end 
%tddft 
 Iroot 1 Nroots 3 
sf true 
end 
*xyz 0 3 
O   2.87176262 0.65712358 -0.88911441
O   -0.64259752 1.54379153 -2.34058242
O   0.28058417 -3.10157635 -0.36938033
O   -3.03945535 -1.71560219 -0.4794171
N   0.37199166 -1.57337964 1.29107763
N   -1.98973835 -0.14110501 0.87352275
N   1.67648054 -1.28437905 -0.59963368
N   -1.56569948 -0.19189171 -1.29927982
C   1.69228699 0.44696408 1.06231343
C   -0.70813438 1.57261567 -0.03802089
C   0.46455667 -0.19923375 1.61472254
C   -0.86605897 0.69682161 1.13659451
C   2.31992479 1.61439787 1.64770262
C   -0.54670218 3.04579973 0.14017169
C   2.18612637 -0.06950376 -0.20762594
C   -0.9190409 0.99460018 -1.28865678
C   0.7177657 -2.04901254 0.06335473
C   -2.26174509 -0.77849739 -0.30592908
H   0.36080289 -0.01470166 2.71214478
H   -1.17834069 1.35067779 2.01473384
H   3.38665232 1.53416205 1.81557631
H   2.1891598 2.51715746 1.12444208
H   1.8729826 1.7809717 2.69915218
H   -1.55576444 3.55198043 0.28960211
H   0.05114581 3.27794765 1.05500668
H   -0.00652366 3.5481976 -0.62119997
H   -0.35968056 -2.06922129 1.68788952
H   -2.43475316 -0.56781513 1.68179037
H   1.92292001 -1.65299288 -1.50421928
H   -1.6511938 -0.57976626 -2.20017616
*
