! Engrad def2-TZVPPD wB97M-D3BJ 
%pal nprocs 8 end%pal nprocs 64 end 
%tddft 
Iroot 3 Nroots 3 
sf true 
end 
*xyz 0 3 
O   2.9470029541257454 0.7856777451894393 -0.7311513627566663
O   -0.3944404300568816 1.1186842697697579 -2.297910753097744
O   0.4952955801111135 -2.991115705949361 -0.8727320766525729
O   -3.1154498714054797 -1.4790418705510904 0.12065079046946314
N   0.34173434231302413 -1.6974366403392878 0.9407390480043365
N   -2.0911673500863923 0.16343402828790832 1.1973501527416777
N   1.6537490944834066 -1.0529344569549985 -0.8127515327702832
N   -1.5977380693674346 -0.2786023205750135 -1.0126704621499596
C   1.4372539241219244 0.45470848466223784 0.9859736729434535
C   -0.5448924239682806 1.5747578550354497 0.008203156028183906
C   0.48366245511124883 -0.45730963071409403 1.5857673175692149
C   -0.948063861040555 0.9396765133739349 1.2637341944045202
C   2.044782297382121 1.467298581950539 1.8210795816068417
C   -0.41435384734969233 3.0044245165631316 -0.08761132140528324
C   2.0960124361721677 0.09831541713742242 -0.240341159794097
C   -0.8103846493104817 0.8254631430511753 -1.2096117840292806
C   0.7999177718044417 -1.9852054444463048 -0.2939908782696048
C   -2.3146178933093524 -0.5924741773437032 0.11153030882446995
H   0.5897026546853993 -0.5999666525497092 2.655635036989489
H   -1.0347323866189146 1.6454235815348317 2.0787066715536424
H   2.348243079131111 2.3203739428327546 1.2217047632073408
H   1.4147767459850458 1.842691907326957 2.624042184092389
H   2.9483402449357956 1.1444998457447957 2.33537915426916
H   -1.4105179720024106 3.4177586455403204 -0.25930066769338306
H   0.01391746765948901 3.525452624581573 0.759081778604478
H   0.18325849800789662 3.289162592914129 -0.948537000035439
H   -0.3279880581230854 -2.3611062346077976 1.281090458698213
H   -2.5839837145969216 -0.09379767023831717 2.02898970760021
H   2.0307699246016453 -1.2813289365052574 -1.7172245692814563
H   -1.787488943395687 -0.8324839547214911 -1.831224409671301
*
