! Engrad def2-TZVPPD wB97M-D3BJ 
%pal nprocs 8 end%pal nprocs 64 end 
%tddft 
 Iroot 2 Nroots 3 
sf true 
end 
*xyz 0 3 
O   3.55862491 0.36574095 0.51401407
O   -0.86355589 0.88790075 -2.90576811
O   0.64328233 -2.78565776 -1.04621579
O   -3.81753194 -0.77527361 -0.03901181
N   -0.04188102 -1.45973861 0.6738021
N   -2.16909771 0.5279859 0.87313042
N   2.16019616 -1.24083363 -0.15295798
N   -2.07969301 -0.26536672 -1.40633809
C   1.48124061 0.26152784 1.55557757
C   -0.38908469 1.23506284 -0.57509573
C   0.10423593 -0.17755687 1.37684883
C   -0.80329513 0.97828049 0.80230466
C   1.87002784 1.30708096 2.46067398
C   0.75128318 2.18850125 -0.74783055
C   2.50114562 -0.23098757 0.64106467
C   -1.10457647 0.68139223 -1.70923406
C   0.88420591 -1.94063964 -0.2198625
C   -2.77913142 -0.17756089 -0.15169062
H   -0.34398486 -0.26536296 2.40058285
H   -0.68125635 1.94938696 1.37426307
H   2.33067119 2.11687409 1.95568421
H   1.02929731 1.55632328 3.1292825
H   2.664024 0.84332454 3.09200256
H   1.74131169 1.73457693 -0.81093232
H   0.57300587 2.91600866 -1.57616213
H   0.86743548 2.81464671 0.09943966
H   -0.93845374 -1.9403288 0.58834852
H   -2.59381751 0.37683523 1.77670683
H   2.92128094 -1.45392609 -0.90388263
H   -2.63995528 -0.42935951 -2.20517325
*
