! Engrad wB97M-D3BJ def2-TZVPPD 
%pal nprocs 8 end%pal nprocs 16 end 
%tddft nroots 2 Iroot 2
 sf true 
end 
*xyz 0 3 
O   0.11068045559005 0.83180748516437 -5.221968425e-05
C   0.7246205549766 -0.40756928117441 7.913066306e-05
C   -0.70567434645252 -0.46886098801581 -0.00011545578122
H   1.26326479691296 -0.66867721500333 0.90751642920446
H   1.26314790418541 -0.66891716333076 -0.90738962796967
H   -1.24207571605442 -0.62340737468044 -0.92306163759046
H   -1.24183360519461 -0.62325066652055 0.92302338115808
*
