! Engrad def2-TZVPPD wB97M-D3BJ 
%pal nprocs 8 end%pal nprocs 32 end 
 %tddft nroots 2 Iroot 2 
sf true 
end 
*xyz 0 3 
O   2.58660809781178 -0.09456759301442 -1.39820769112677
O   -0.71247834999258 2.3358939937104 -2.04405026952199
O   0.43558922271626 -3.27308633895195 0.84658801757807
O   -2.30340207360833 -1.84850688794881 -1.34286137973821
N   0.53442736939 -1.22429502699704 1.83892847292511
N   -1.94412368930577 -0.53786260698723 0.47560470685832
N   1.06092220382893 -1.47605550708454 -0.41696828029134
N   -1.39367089966878 0.20568894110589 -1.66293750750961
C   1.62080186372761 0.58565640447594 0.65315217839284
C   -0.93238121681181 1.6445745451853 0.20599621349577
C   0.3608708981086 0.16638462531074 1.59594610650625
C   -1.26116364217473 0.5432674957168 1.11062985573468
C   2.60865017157532 1.56479297087027 1.13011120294689
C   -0.73047636609681 3.00805898669855 0.73233509313477
C   1.82307553446504 -0.28914935461052 -0.47185231623396
C   -0.98422804981856 1.46010293658131 -1.24888165293434
C   0.65671825724176 -2.08950775637248 0.76243975650072
C   -1.9013764856548 -0.81389328045719 -0.86860869428764
H   0.47411400815869 0.70932012092407 2.5314203347709
H   -1.78626917516871 0.86173081445277 2.00763465851369
H   3.43020691402294 1.64330461136525 0.42382223429142
H   2.158273177886 2.55392885533717 1.26129645051927
H   3.00593933873107 1.27143566843733 2.1079837259613
H   -1.70309741167357 3.46611047929982 0.94443285525289
H   -0.17670993856344 2.99776579689435 1.67197745941083
H   -0.21975347017921 3.62468249810826 5.11194611e-05
H   0.16358993273577 -1.66835886734368 2.66284453667581
H   -2.22217882109256 -1.32875195449771 1.0302551232036
H   1.21411761927319 -2.11736544998325 -1.17951723323061
H   -1.40999501986333 0.03370087977457 -2.6549650772598
*
