! Engrad def2-TZVPPD wB97M-D3BJ 
%pal nprocs 8 end%pal nprocs 64 end 
%tddft 
 Iroot 2 Nroots 3 
sf true 
end 
*xyz 0 3 
O   2.76497418 -0.95694726 -2.49554554
O   -2.50749183 1.40380648 -1.25370096
O   -1.26935553 -2.46484316 -1.08869196
O   -2.4550779 0.81865179 3.15915599
N   0.08748123 -1.54340175 0.43367244
N   -0.36671913 1.00888376 2.16791609
N   0.79202861 -1.74517159 -1.73739765
N   -2.47021888 0.95130211 0.9002148
C   2.24681204 -0.50699843 -0.20273698
C   -0.34401289 1.27901975 -0.22828743
C   1.11117912 -0.47308595 0.75740153
C   0.46397909 0.93559292 0.94504567
C   3.66237543 -0.31018254 0.20782444
C   0.37890615 1.73884909 -1.47961404
C   1.96084779 -1.08293652 -1.52340391
C   -1.77137257 1.25822108 -0.27446444
C   -0.26398176 -1.91386043 -0.81858766
C   -1.7886744 0.85362063 2.1329025
H   1.43143183 -0.65132527 1.77996112
H   1.30384483 1.57625006 1.05520934
H   4.16724409 -1.32399704 0.48127534
H   4.35924465 0.09295455 -0.57219925
H   3.6069736 0.36071095 1.09139086
H   -0.11787008 2.5819329 -1.95645219
H   1.36353579 2.04033047 -1.12401732
H   0.33296694 0.91740252 -2.24342533
H   -0.68287281 -1.49594952 1.06717829
H   0.04981939 1.24193998 3.00791908
H   0.52987893 -2.09685934 -2.65005906
H   -3.52675767 0.91493088 0.87835759
*
