! Engrad def2-TZVPPD wB97M-D3BJ 
%pal nprocs 8 end%pal nprocs 64 end 
%tddft 
 Iroot 1 Nroots 3 
sf true 
end 
*xyz 0 3 
O   2.62983154 -0.5367657 -2.29530673
O   -2.15074795 1.02276858 -1.68276392
O   -0.97373521 -2.8106357 -0.84302936
O   -2.52343308 0.39160649 2.90382964
N   0.13545599 -1.49577434 0.66745798
N   -0.65495479 1.21422265 1.99781944
N   0.75694755 -1.54572483 -1.56695031
N   -2.3339448 0.53190562 0.6044594
C   2.09007552 -0.38869048 0.02493463
C   -0.24733633 1.30218455 -0.36765984
C   0.99500191 -0.45943766 1.02264212
C   0.31446952 0.99032265 0.97606258
C   3.33741163 0.35145358 0.19111241
C   0.58554503 1.97429778 -1.37323092
C   1.87177717 -0.83437569 -1.32927233
C   -1.65745304 0.95653361 -0.53997226
C   -0.11840471 -2.0020209 -0.57275229
C   -1.9018052 0.66856088 1.91809535
H   1.4219262 -0.72181038 2.03521492
H   1.16554064 1.58727592 1.20265563
H   4.03497634 -0.02529299 -0.50687958
H   3.3332723 1.48374287 -0.0490064
H   3.71651916 0.34052878 1.22736716
H   0.02144409 2.12792754 -2.28577652
H   1.00106045 2.98946654 -0.9829991
H   1.35850971 1.37905502 -1.70945024
H   -0.57019682 -1.83131158 1.35735587
H   -0.27185306 1.19781277 2.87625574
H   0.5240153 -1.73144613 -2.53342185
H   -3.26168267 0.10537175 0.55390681
*
