! Engrad def2-TZVPPD wB97M-D3BJ 
%pal nprocs 8 end%pal nprocs 64 end 
%tddft 
 Iroot 1 Nroots 3 
sf true 
end 
*xyz 0 3 
O   0.14815196 0.98975836 0.77363018
C   0.48484332 -0.29568504 0.42404743
C   0.57308319 -0.55948854 -1.0441604
H   -0.17985843 -0.98079525 0.97689772
H   1.45240992 -0.65339377 0.698754
H   1.55463428 -0.96070749 -1.6098195
H   -0.02962529 -0.11310844 -1.76950794
*
