! Engrad wB97M-D3BJ def2-TZVPPD 
%pal nprocs 8 end%pal nprocs 16 end 
%tddft nroots 2 Iroot 1
 sf true 
end 
*xyz 0 3 
O   0.48429078077469 0.96214922920508 -0.00031382625198
C   0.7451317945828 -0.35453674556207 -3.204591442e-05
C   -0.66015545147635 -0.5686492311492 0.00010881546297
H   1.27062938734209 -0.72265228869112 0.88917423025784
H   1.27032152177068 -0.7231071212168 -0.88924001104351
H   -1.21060412816829 -0.55025334769093 -0.92698676250771
H   -1.21044837869534 -0.54996260919635 0.92728959999681
*
